SLURM_NODELIST orfoz194
NUMBER OF TASKS 1
NUMBER OF CORES=110
 Entering Gaussian System, Link 0=/arf/sw/apps/gaussian/avx2/g16/g16
 Initial command:
 /arf/sw/apps/gaussian/avx2/g16/l1.exe "/tmp/2829207/Gau-2145443.inp" -scrdir="/tmp/2829207/"
 Entering Link 1 = /arf/sw/apps/gaussian/avx2/g16/l1.exe PID=   2145444.
  
 Copyright (c) 1988-2021, Gaussian, Inc.  All Rights Reserved.
  
 This is part of the Gaussian(R) 16 program.  It is based on
 the Gaussian(R) 09 system (copyright 2009, Gaussian, Inc.),
 the Gaussian(R) 03 system (copyright 2003, Gaussian, Inc.),
 the Gaussian(R) 98 system (copyright 1998, Gaussian, Inc.),
 the Gaussian(R) 94 system (copyright 1995, Gaussian, Inc.),
 the Gaussian 92(TM) system (copyright 1992, Gaussian, Inc.),
 the Gaussian 90(TM) system (copyright 1990, Gaussian, Inc.),
 the Gaussian 88(TM) system (copyright 1988, Gaussian, Inc.),
 the Gaussian 86(TM) system (copyright 1986, Carnegie Mellon
 University), and the Gaussian 82(TM) system (copyright 1983,
 Carnegie Mellon University). Gaussian is a federally registered
 trademark of Gaussian, Inc.
  
 This software contains proprietary and confidential information,
 including trade secrets, belonging to Gaussian, Inc.
  
 This software is provided under written license and may be
 used, copied, transmitted, or stored only in accord with that
 written license.
  
 The following legend is applicable only to US Government
 contracts under FAR:
  
                    RESTRICTED RIGHTS LEGEND
  
 Use, reproduction and disclosure by the US Government is
 subject to restrictions as set forth in subparagraphs (a)
 and (c) of the Commercial Computer Software - Restricted
 Rights clause in FAR 52.227-19.
  
 Gaussian, Inc.
 340 Quinnipiac St., Bldg. 40, Wallingford CT 06492
  
  
 ---------------------------------------------------------------
 Warning -- This program may not be used in any manner that
 competes with the business of Gaussian, Inc. or will provide
 assistance to any competitor of Gaussian, Inc.  The licensee
 of this program is prohibited from giving any competitor of
 Gaussian, Inc. access to this program.  By using this program,
 the user acknowledges that Gaussian, Inc. is engaged in the
 business of creating and licensing software in the field of
 computational chemistry and represents and warrants to the
 licensee that it is not a competitor of Gaussian, Inc. and that
 it will not use this program in any manner prohibited above.
 ---------------------------------------------------------------
  

 Cite this work as:
 Gaussian 16, Revision C.02,
 M. J. Frisch, G. W. Trucks, H. B. Schlegel, G. E. Scuseria, 
 M. A. Robb, J. R. Cheeseman, G. Scalmani, V. Barone, 
 G. A. Petersson, H. Nakatsuji, X. Li, M. Caricato, A. V. Marenich, 
 J. Bloino, B. G. Janesko, R. Gomperts, B. Mennucci, H. P. Hratchian, 
 J. V. Ortiz, A. F. Izmaylov, J. L. Sonnenberg, D. Williams-Young, 
 F. Ding, F. Lipparini, F. Egidi, J. Goings, B. Peng, A. Petrone, 
 T. Henderson, D. Ranasinghe, V. G. Zakrzewski, J. Gao, N. Rega, 
 G. Zheng, W. Liang, M. Hada, M. Ehara, K. Toyota, R. Fukuda, 
 J. Hasegawa, M. Ishida, T. Nakajima, Y. Honda, O. Kitao, H. Nakai, 
 T. Vreven, K. Throssell, J. A. Montgomery, Jr., J. E. Peralta, 
 F. Ogliaro, M. J. Bearpark, J. J. Heyd, E. N. Brothers, K. N. Kudin, 
 V. N. Staroverov, T. A. Keith, R. Kobayashi, J. Normand, 
 K. Raghavachari, A. P. Rendell, J. C. Burant, S. S. Iyengar, 
 J. Tomasi, M. Cossi, J. M. Millam, M. Klene, C. Adamo, R. Cammi, 
 J. W. Ochterski, R. L. Martin, K. Morokuma, O. Farkas, 
 J. B. Foresman, and D. J. Fox, Gaussian, Inc., Wallingford CT, 2019.
 
 ******************************************
 Gaussian 16:  ES64L-G16RevC.02  7-Dec-2021
                30-Sep-2025 
 ******************************************
 %chk=3e_td.chk
 %nprocshared=110
 Will use up to  110 processors via shared memory.
 %mem=100GB
 -----------------------------
 # td=(nstates=10) b3lyp/6-31g
 -----------------------------
 1/38=1,172=1/1;
 2/12=2,17=6,18=5,40=1/2;
 3/5=1,6=6,11=9,25=1,30=1,74=-5/1,2,3,8;
 4//1;
 5/5=2,38=5/2;
 8/6=1,10=2,108=10/1;
 9/41=10,42=1,70=2/14;
 6/7=2,8=2,9=2,10=2/1;
 99/5=1,9=1/99;
 -------------------
 Title Card Required
 -------------------
 Symbolic Z-matrix:
 Charge =  0 Multiplicity = 1
 C                    -0.72357   0.58941   0.05087 
 C                     0.72338   0.58938  -0.05035 
 C                     1.48769   1.78195  -0.17252 
 C                    -1.48782   1.78206   0.1728 
 C                    -0.73423   3.00052   0.0629 
 C                     0.73422   3.00048  -0.06263 
 S                     0.00008   5.40378   0.00039 
 N                     1.30496   4.20939  -0.05372 
 N                    -1.30487   4.20947   0.05437 
 N                    -1.38728  -0.62734   0.03591 
 N                     1.38704  -0.62741  -0.03527 
 C                    -2.91261   1.77574   0.40884 
 C                    -3.84337   2.70129   0.99335 
 C                    -5.15429   2.09595   0.96566 
 C                    -4.99113   0.81337   0.40385 
 C                     2.91245   1.77554  -0.40878 
 C                     3.84303   2.70107  -0.99355 
 C                     5.15402   2.09588  -0.96593 
 C                     4.99103   0.81334  -0.40395 
 N                    -3.67133   0.66028   0.10658 
 H                    -3.20446  -0.20861  -0.17666 
 N                     3.6713    0.66023  -0.10636 
 H                     3.20454  -0.20865   0.17706 
 C                    -6.04618   3.92007   1.99876 
 C                    -4.74723   4.49223   2.09826 
 C                     4.74651   4.49187  -2.09898 
 C                     6.04555   3.91995  -1.99944 
 N                    -6.26208   2.71991   1.45345 
 N                    -3.65423   3.90059   1.60665 
 N                     3.65364   3.9002   -1.60713 
 N                     6.26168   2.71991  -1.45393 
 H                    -6.90585   4.45079   2.39087 
 H                    -4.61234   5.4425    2.60165 
 H                     4.61143   5.44201  -2.60259 
 H                     6.90512   4.45072  -2.3917 
 C                    -0.71243  -1.76034   0.00223 
 H                    -1.27197  -2.68723  -0.01857 
 C                     0.71213  -1.76037  -0.00146 
 H                     1.27163  -2.68729   0.01948 
 N                    -5.87332  -0.2223    0.15562 
 C                    -7.66499  -1.36006  -0.00229 
 C                    -6.55522  -2.1553   -0.43612 
 N                     5.87333  -0.22226  -0.15581 
 C                     7.66509  -1.35989   0.00187 
 C                     6.55549  -2.15507   0.43625 
 C                    -6.73493  -3.47938  -0.87811 
 H                    -5.89731  -4.08128  -1.20475 
 C                    -8.97572  -1.87144  -0.00375 
 H                    -9.8133   -1.26958   0.32316 
 C                    -8.02913  -3.98528  -0.87839 
 C                    -9.15404  -3.17838  -0.44054 
 C                     8.97584  -1.87123   0.00307 
 H                     9.81329  -1.26945  -0.3243 
 C                     6.73537  -3.47902   0.87855 
 H                     5.89789  -4.08084   1.20566 
 C                     9.15434  -3.17805   0.44014 
 C                     8.0296   -3.98487   0.87858 
 C                    -10.46747  -3.74147  -0.46001 
 C                    -8.26038  -5.32569  -1.31742 
 C                     10.46779  -3.7411    0.45931 
 C                     8.26104  -5.32513   1.31797 
 N                    -8.45131  -6.42673  -1.67774 
 N                    -11.54609  -4.20508  -0.47642 
 N                     11.54643  -4.20469   0.4755 
 N                     8.45212  -6.42605   1.67856 
 N                    -5.41336  -1.41936  -0.33155 
 N                    -7.21598  -0.12709   0.37192 
 N                     5.41357  -1.41919   0.33185 
 N                     7.21594  -0.12702  -0.37246 
 
 Stoichiometry    C36H12N20S
 Framework group  C1[X(C36H12N20S)]
 Deg. of freedom   201
 Full point group                 C1      NOp   1
 Largest Abelian subgroup         C1      NOp   1
 Largest concise Abelian subgroup C1      NOp   1
                         Standard orientation:                         
 ---------------------------------------------------------------------
 Center     Atomic      Atomic             Coordinates (Angstroms)
 Number     Number       Type             X           Y           Z
 ---------------------------------------------------------------------
      1          6           0       -0.723570   -0.589410   -0.050869
      2          6           0        0.723382   -0.589376    0.050354
      3          6           0        1.487690   -1.781954    0.172521
      4          6           0       -1.487816   -1.782056   -0.172802
      5          6           0       -0.734234   -3.000516   -0.062896
      6          6           0        0.734220   -3.000480    0.062627
      7         16           0        0.000077   -5.403776   -0.000391
      8          7           0        1.304963   -4.209386    0.053722
      9          7           0       -1.304874   -4.209472   -0.054373
     10          7           0       -1.387283    0.627340   -0.035914
     11          7           0        1.387043    0.627409    0.035274
     12          6           0       -2.912610   -1.775735   -0.408835
     13          6           0       -3.843365   -2.701291   -0.993348
     14          6           0       -5.154290   -2.095952   -0.965664
     15          6           0       -4.991130   -0.813372   -0.403854
     16          6           0        2.912448   -1.775542    0.408784
     17          6           0        3.843033   -2.701067    0.993549
     18          6           0        5.154016   -2.095885    0.965933
     19          6           0        4.991029   -0.813344    0.403949
     20          7           0       -3.671329   -0.660282   -0.106578
     21          1           0       -3.204460    0.208614    0.176657
     22          7           0        3.671304   -0.660231    0.106358
     23          1           0        3.204540    0.208648   -0.177063
     24          6           0       -6.046177   -3.920074   -1.998760
     25          6           0       -4.747230   -4.492225   -2.098264
     26          6           0        4.746510   -4.491874    2.098980
     27          6           0        6.045554   -3.919947    1.999437
     28          7           0       -6.262084   -2.719910   -1.453451
     29          7           0       -3.654231   -3.900591   -1.606654
     30          7           0        3.653641   -3.900200    1.607128
     31          7           0        6.261685   -2.719909    1.453928
     32          1           0       -6.905850   -4.450786   -2.390868
     33          1           0       -4.612338   -5.442504   -2.601651
     34          1           0        4.611434   -5.442009    2.602591
     35          1           0        6.905117   -4.450723    2.391698
     36          6           0       -0.712431    1.760336   -0.002227
     37          1           0       -1.271973    2.687234    0.018566
     38          6           0        0.712133    1.760366    0.001463
     39          1           0        1.271631    2.687287   -0.019479
     40          7           0       -5.873323    0.222301   -0.155624
     41          6           0       -7.664988    1.360055    0.002290
     42          6           0       -6.555224    2.155300    0.436124
     43          7           0        5.873327    0.222260    0.155811
     44          6           0        7.665090    1.359890   -0.001866
     45          6           0        6.555492    2.155068   -0.436251
     46          6           0       -6.734927    3.479379    0.878108
     47          1           0       -5.897312    4.081280    1.204745
     48          6           0       -8.975719    1.871440    0.003745
     49          1           0       -9.813298    1.269583   -0.323157
     50          6           0       -8.029133    3.985279    0.878390
     51          6           0       -9.154042    3.178381    0.440540
     52          6           0        8.975841    1.871228   -0.003072
     53          1           0        9.813293    1.269447    0.324297
     54          6           0        6.735374    3.479017   -0.878547
     55          1           0        5.897887    4.080836   -1.205664
     56          6           0        9.154343    3.178052   -0.440137
     57          6           0        8.029600    3.984865   -0.878578
     58          6           0      -10.467469    3.741465    0.460009
     59          6           0       -8.260379    5.325691    1.317424
     60          6           0       10.467788    3.741104   -0.459314
     61          6           0        8.261036    5.325127   -1.317970
     62          7           0       -8.451310    6.426731    1.677740
     63          7           0      -11.546093    4.205084    0.476421
     64          7           0       11.546428    4.204694   -0.475504
     65          7           0        8.452116    6.426053   -1.678559
     66          7           0       -5.413357    1.419363    0.331552
     67          7           0       -7.215983    0.127088   -0.371920
     68          7           0        5.413569    1.419191   -0.331853
     69          7           0        7.215938    0.127017    0.372460
 ---------------------------------------------------------------------
 Rotational constants (GHZ):           0.0607372           0.0177002           0.0141691
 Standard basis: 6-31G (6D, 7F)
 There are   541 symmetry adapted cartesian basis functions of A   symmetry.
 There are   541 symmetry adapted basis functions of A   symmetry.
   541 basis functions,  1326 primitive gaussians,   541 cartesian basis functions
   192 alpha electrons      192 beta electrons
       nuclear repulsion energy      6697.5265469960 Hartrees.
 NAtoms=   69 NActive=   69 NUniq=   69 SFac= 1.00D+00 NAtFMM=   60 NAOKFM=T Big=T
 Integral buffers will be    131072 words long.
 Regular integral format.
 Two-electron integral symmetry is turned on.
 One-electron integrals computed using PRISM.
 NBasis=   541 RedAO= T EigKep=  2.59D-04  NBF=   541
 NBsUse=   541 1.00D-06 EigRej= -1.00D+00 NBFU=   541
 ExpMin= 1.17D-01 ExpMax= 2.19D+04 ExpMxC= 3.30D+03 IAcc=3 IRadAn=         5 AccDes= 0.00D+00
 Harris functional with IExCor=  402 and IRadAn=       5 diagonalized for initial guess.
 HarFok:  IExCor=  402 AccDes= 0.00D+00 IRadAn=         5 IDoV= 1 UseB2=F ITyADJ=14
 ICtDFT=  3500011 ScaDFX=  1.000000  1.000000  1.000000  1.000000
 FoFCou: FMM=F IPFlag=           0 FMFlag=      100000 FMFlg1=        2001
         NFxFlg=           0 DoJE=T BraDBF=F KetDBF=T FulRan=T
         wScrn=  0.000000 ICntrl=       500 IOpCl=  0 I1Cent=   200000004 NGrid=           0
         NMat0=    1 NMatS0=      1 NMatT0=    0 NMatD0=    1 NMtDS0=    0 NMtDT0=    0
 Petite list used in FoFCou.
 Requested convergence on RMS density matrix=1.00D-08 within 128 cycles.
 Requested convergence on MAX density matrix=1.00D-06.
 Requested convergence on             energy=1.00D-06.
 No special actions if energy rises.
 Integral accuracy reduced to 1.0D-05 until final iterations.
 Initial convergence to 1.0D-05 achieved.  Increase integral accuracy.
 SCF Done:  E(RB3LYP) =  -2871.22773650     A.U. after   18 cycles
            NFock= 18  Conv=0.51D-08     -V/T= 2.0050
 DoSCS=F DFT=T ScalE2(SS,OS)=  1.000000  1.000000
 ExpMin= 1.17D-01 ExpMax= 2.19D+04 ExpMxC= 3.30D+03 IAcc=3 IRadAn=         5 AccDes= 0.00D+00
 HarFok:  IExCor=  205 AccDes= 0.00D+00 IRadAn=         5 IDoV=-2 UseB2=F ITyADJ=14
 ICtDFT= 12500011 ScaDFX=  1.000000  1.000000  1.000000  1.000000
 GSVD:  LWork=       -4209 too small for GESVD, short by       19520 words or       19520 for optimal perf.
 Range of M.O.s used for correlation:    62   541
 NBasis=   541 NAE=   192 NBE=   192 NFC=    61 NFV=     0
 NROrb=    480 NOA=   131 NOB=   131 NVA=   349 NVB=   349

 **** Warning!!: The largest alpha MO coefficient is  0.14316824D+02


 **** Warning!!: The smallest alpha delta epsilon is  0.50067490D-01

 Orbital symmetries:
       Occupied  (A) (A) (A) (A) (A) (A) (A) (A) (A) (A) (A) (A)
                 (A) (A) (A) (A) (A) (A) (A) (A) (A) (A) (A) (A)
                 (A) (A) (A) (A) (A) (A) (A) (A) (A) (A) (A) (A)
                 (A) (A) (A) (A) (A) (A) (A) (A) (A) (A) (A) (A)
                 (A) (A) (A) (A) (A) (A) (A) (A) (A) (A) (A) (A)
                 (A) (A) (A) (A) (A) (A) (A) (A) (A) (A) (A) (A)
                 (A) (A) (A) (A) (A) (A) (A) (A) (A) (A) (A) (A)
                 (A) (A) (A) (A) (A) (A) (A) (A) (A) (A) (A) (A)
                 (A) (A) (A) (A) (A) (A) (A) (A) (A) (A) (A) (A)
                 (A) (A) (A) (A) (A) (A) (A) (A) (A) (A) (A) (A)
                 (A) (A) (A) (A) (A) (A) (A) (A) (A) (A) (A) (A)
                 (A) (A) (A) (A) (A) (A) (A) (A) (A) (A) (A) (A)
                 (A) (A) (A) (A) (A) (A) (A) (A) (A) (A) (A) (A)
                 (A) (A) (A) (A) (A) (A) (A) (A) (A) (A) (A) (A)
                 (A) (A) (A) (A) (A) (A) (A) (A) (A) (A) (A) (A)
                 (A) (A) (A) (A) (A) (A) (A) (A) (A) (A) (A) (A)
       Virtual   (A) (A) (A) (A) (A) (A) (A) (A) (A) (A) (A) (A)
                 (A) (A) (A) (A) (A) (A) (A) (A) (A) (A) (A) (A)
                 (A) (A) (A) (A) (A) (A) (A) (A) (A) (A) (A) (A)
                 (A) (A) (A) (A) (A) (A) (A) (A) (A) (A) (A) (A)
                 (A) (A) (A) (A) (A) (A) (A) (A) (A) (A) (A) (A)
                 (A) (A) (A) (A) (A) (A) (A) (A) (A) (A) (A) (A)
                 (A) (A) (A) (A) (A) (A) (A) (A) (A) (A) (A) (A)
                 (A) (A) (A) (A) (A) (A) (A) (A) (A) (A) (A) (A)
                 (A) (A) (A) (A) (A) (A) (A) (A) (A) (A) (A) (A)
                 (A) (A) (A) (A) (A) (A) (A) (A) (A) (A) (A) (A)
                 (A) (A) (A) (A) (A) (A) (A) (A) (A) (A) (A) (A)
                 (A) (A) (A) (A) (A) (A) (A) (A) (A) (A) (A) (A)
                 (A) (A) (A) (A) (A) (A) (A) (A) (A) (A) (A) (A)
                 (A) (A) (A) (A) (A) (A) (A) (A) (A) (A) (A) (A)
                 (A) (A) (A) (A) (A) (A) (A) (A) (A) (A) (A) (A)
                 (A) (A) (A) (A) (A) (A) (A) (A) (A) (A) (A) (A)
                 (A) (A) (A) (A) (A) (A) (A) (A) (A) (A) (A) (A)
                 (A) (A) (A) (A) (A) (A) (A) (A) (A) (A) (A) (A)
                 (A) (A) (A) (A) (A) (A) (A) (A) (A) (A) (A) (A)
                 (A) (A) (A) (A) (A) (A) (A) (A) (A) (A) (A) (A)
                 (A) (A) (A) (A) (A) (A) (A) (A) (A) (A) (A) (A)
                 (A) (A) (A) (A) (A) (A) (A) (A) (A) (A) (A) (A)
                 (A) (A) (A) (A) (A) (A) (A) (A) (A) (A) (A) (A)
                 (A) (A) (A) (A) (A) (A) (A) (A) (A) (A) (A) (A)
                 (A) (A) (A) (A) (A) (A) (A) (A) (A) (A) (A) (A)
                 (A) (A) (A) (A) (A) (A) (A) (A) (A) (A) (A) (A)
                 (A) (A) (A) (A) (A) (A) (A) (A) (A) (A) (A) (A)
                 (A) (A) (A) (A) (A) (A) (A) (A) (A) (A) (A) (A)
                 (A) (A) (A) (A) (A) (A) (A) (A) (A) (A) (A) (A)
                 (A)
    40 initial guesses have been made.
 Convergence on wavefunction:    0.001000000000000
 Iteration     1 Dimension    40 NMult     0 NNew     40
 CISAX will form    40 AO SS matrices at one time.
 New state      2 was old state      6
 New state      3 was old state      5
 New state      4 was old state      2
 New state      5 was old state      3
 New state      6 was old state      4
 New state     10 was old state     14
 Iteration     2 Dimension    60 NMult    40 NNew     20
 New state      7 was old state      9
 New state      8 was old state      7
 New state      9 was old state      8
 Iteration     3 Dimension    80 NMult    60 NNew     20
 Iteration     4 Dimension   100 NMult    80 NNew     20
 Iteration     5 Dimension   120 NMult   100 NNew     20
 Iteration     6 Dimension   126 NMult   120 NNew      6
 Iteration     7 Dimension   128 NMult   126 NNew      2
 Iteration     8 Dimension   130 NMult   128 NNew      2
 Convergence on energies, max DE= 8.94D-06.
 ***********************************************************************
 Excited states from <AA,BB:AA,BB> singles matrix:
 ***********************************************************************
 
 Ground to excited state transition densities written to RWF  633
 Ground to excited state transition electric dipole moments (Au):
       state          X           Y           Z        Dip. S.      Osc.
         1         4.6556     -0.0000      0.2383     21.7315      0.6518
         2        -0.0010     -0.1872     -0.0002      0.0351      0.0017
         3        -0.5617      0.0003     -0.0343      0.3167      0.0158
         4         0.0002     -0.2276      0.0001      0.0518      0.0027
         5         3.3116      0.0001     -0.3298     11.0755      0.6021
         6         0.0001     -2.1668     -0.0002      4.6952      0.2815
         7         0.6943      0.0002      0.0370      0.4835      0.0314
         8        -0.1391      0.0000     -0.0217      0.0198      0.0013
         9        -0.0000     -0.1850     -0.0000      0.0342      0.0023
        10        -0.3422     -0.0001     -0.1661      0.1447      0.0103
 Ground to excited state transition velocity dipole moments (Au):
       state          X           Y           Z        Dip. S.      Osc.
         1        -0.1821      0.0000     -0.0066      0.0332      0.4922
         2         0.0001      0.0165     -0.0000      0.0003      0.0025
         3         0.0396     -0.0000     -0.0051      0.0016      0.0142
         4        -0.0000      0.0196      0.0000      0.0004      0.0033
         5        -0.2221     -0.0000      0.0231      0.0499      0.4078
         6        -0.0000      0.1505      0.0000      0.0227      0.1680
         7        -0.0504     -0.0000     -0.0069      0.0026      0.0177
         8         0.0131     -0.0000      0.0018      0.0002      0.0012
         9         0.0000      0.0114      0.0000      0.0001      0.0009
        10         0.0322      0.0000      0.0503      0.0036      0.0223
 Ground to excited state transition magnetic dipole moments (Au):
       state          X           Y           Z
         1         0.0712      0.0001     -0.7769
         2        -0.0002     -0.0164      0.0004
         3        -0.1010      0.0002      0.2177
         4         0.0001      0.1488     -0.0001
         5         0.0490     -0.0000     -2.2088
         6        -0.0001      0.6752     -0.0003
         7         0.0284     -0.0000     -0.4399
         8         0.0360     -0.0001     -0.3672
         9         0.0000     -0.0231      0.0001
        10         0.1902      0.0001     -0.1203
 Ground to excited state transition velocity quadrupole moments (Au):
       state          XX          YY          ZZ          XY          XZ          YZ
         1         0.0001      0.0000     -0.0000     -0.3127     -0.0000      0.1918
         2         0.3322     -0.1573      0.0796     -0.0004      0.0753     -0.0002
         3        -0.0016      0.0005     -0.0002     -0.1082     -0.0003     -0.0734
         4        -0.5572      0.0004     -0.0215      0.0001     -0.1492      0.0001
         5        -0.0005      0.0001     -0.0000     -1.5371     -0.0000      0.0902
         6         4.2178      0.1193     -0.0628     -0.0002     -0.4305     -0.0000
         7        -0.0004     -0.0000     -0.0000     -0.1037      0.0001      0.0832
         8         0.0000     -0.0000      0.0000     -0.0489      0.0000      0.0105
         9         0.7519     -0.0200     -0.0172      0.0001     -0.0229     -0.0000
        10         0.0002     -0.0000     -0.0001     -0.0626      0.0000      0.0179
 <0|del|b> * <b|rxdel|0> + <0|del|b> * <b|delr+rdel|0>
 Rotatory Strengths (R) in cgs (10**-40 erg-esu-cm/Gauss)
       state          XX          YY          ZZ    R(velocity)    E-M Angle
         1        56.6535   -352.3078    172.6766    -40.9926       93.15
         2        -7.3024     -0.0002      4.6859     -0.8722       90.00
         3        -2.6564    -40.6130     -5.1890    -16.1528      122.27
         4        26.6580     -0.0000     -0.0411      8.8723       90.00
         5      -374.6873   -201.2520     39.6778   -178.7538       97.20
         6       654.5304     -0.0000    144.8386    266.4563       90.00
         7        13.5901    -11.9962     10.0167      3.8702       85.91
         8        -2.7261      0.0893      1.1963     -0.4801       92.37
         9        -0.0072      0.0000     -1.8825     -0.6299       90.00
        10       -30.5054     12.6372     18.4201      0.1840       90.00
 1/2[<0|r|b>*<b|rxdel|0> + (<0|rxdel|b>*<b|r|0>)*]
 Rotatory Strengths (R) in cgs (10**-40 erg-esu-cm/Gauss)
       state          XX          YY          ZZ     R(length)
         1      -234.3504      0.0000    130.9222    -34.4761
         2        -0.0002     -2.1751      0.0000     -0.7251
         3       -40.1368     -0.0000      5.2824    -11.6181
         4        -0.0000     23.9470      0.0000      7.9823
         5      -114.7523      0.0000   -515.0593   -209.9372
         6         0.0000   1034.6475     -0.0000    344.8825
         7       -13.9495      0.0000     11.5167     -0.8109
         8         3.5451      0.0000     -5.6223     -0.6924
         9         0.0000     -3.0255      0.0000     -1.0085
        10        46.0367      0.0000    -14.1271     10.6365
  1/2[<0|del|b>*<b|r|0> + (<0|r|b>*<b|del|0>)*] (Au)
       state          X           Y           Z        Dip. S.   Osc.(frdel)
         1        -0.8479     -0.0000     -0.0016      0.8495      0.5663
         2        -0.0000     -0.0031      0.0000      0.0031      0.0021
         3        -0.0223     -0.0000      0.0002      0.0221      0.0147
         4        -0.0000     -0.0045      0.0000      0.0045      0.0030
         5        -0.7356     -0.0000     -0.0076      0.7432      0.4955
         6        -0.0000     -0.3262     -0.0000      0.3262      0.2175
         7        -0.0350     -0.0000     -0.0003      0.0353      0.0235
         8        -0.0018     -0.0000     -0.0000      0.0019      0.0012
         9        -0.0000     -0.0021     -0.0000      0.0021      0.0014
        10        -0.0110     -0.0000     -0.0083      0.0194      0.0129

 Excitation energies and oscillator strengths:
 
 Excited State   1:      Singlet-A      1.2243 eV 1012.73 nm  f=0.6518  <S**2>=0.000
     192 ->193         0.71353
     192 <-193        -0.14776
 This state for optimization and/or second-order correction.
 Total Energy, E(TD-HF/TD-DFT) =  -2871.18274572    
 Copying the excited state density for this state as the 1-particle RhoCI density.
 
 Excited State   2:      Singlet-A      1.9989 eV  620.25 nm  f=0.0017  <S**2>=0.000
     189 ->193         0.52646
     191 ->193        -0.43497
     192 ->195        -0.16582
 
 Excited State   3:      Singlet-A      2.0334 eV  609.74 nm  f=0.0158  <S**2>=0.000
     190 ->193         0.69566
 
 Excited State   4:      Singlet-A      2.1111 eV  587.29 nm  f=0.0027  <S**2>=0.000
     189 ->193         0.44982
     191 ->193         0.41552
     192 ->195         0.34046
 
 Excited State   5:      Singlet-A      2.2190 eV  558.75 nm  f=0.6021  <S**2>=0.000
     192 ->194         0.68553
 
 Excited State   6:      Singlet-A      2.4469 eV  506.70 nm  f=0.2815  <S**2>=0.000
     189 ->193        -0.11100
     191 ->193        -0.36342
     192 ->195         0.58568
 
 Excited State   7:      Singlet-A      2.6542 eV  467.13 nm  f=0.0314  <S**2>=0.000
     186 ->193         0.14376
     192 ->196         0.68644
 
 Excited State   8:      Singlet-A      2.6857 eV  461.65 nm  f=0.0013  <S**2>=0.000
     188 ->193         0.70316
 
 Excited State   9:      Singlet-A      2.6894 eV  461.01 nm  f=0.0023  <S**2>=0.000
     187 ->193         0.70298
 
 Excited State  10:      Singlet-A      2.8983 eV  427.78 nm  f=0.0103  <S**2>=0.000
     180 ->193         0.14955
     182 ->193         0.37084
     185 ->193         0.53434
     186 ->193        -0.16517
 SavETr:  write IOETrn=   770 NScale= 10 NData=  16 NLR=1 NState=   10 LETran=     190.

 **********************************************************************

            Population analysis using the SCF Density.

 **********************************************************************

 Orbital symmetries:
       Occupied  (A) (A) (A) (A) (A) (A) (A) (A) (A) (A) (A) (A)
                 (A) (A) (A) (A) (A) (A) (A) (A) (A) (A) (A) (A)
                 (A) (A) (A) (A) (A) (A) (A) (A) (A) (A) (A) (A)
                 (A) (A) (A) (A) (A) (A) (A) (A) (A) (A) (A) (A)
                 (A) (A) (A) (A) (A) (A) (A) (A) (A) (A) (A) (A)
                 (A) (A) (A) (A) (A) (A) (A) (A) (A) (A) (A) (A)
                 (A) (A) (A) (A) (A) (A) (A) (A) (A) (A) (A) (A)
                 (A) (A) (A) (A) (A) (A) (A) (A) (A) (A) (A) (A)
                 (A) (A) (A) (A) (A) (A) (A) (A) (A) (A) (A) (A)
                 (A) (A) (A) (A) (A) (A) (A) (A) (A) (A) (A) (A)
                 (A) (A) (A) (A) (A) (A) (A) (A) (A) (A) (A) (A)
                 (A) (A) (A) (A) (A) (A) (A) (A) (A) (A) (A) (A)
                 (A) (A) (A) (A) (A) (A) (A) (A) (A) (A) (A) (A)
                 (A) (A) (A) (A) (A) (A) (A) (A) (A) (A) (A) (A)
                 (A) (A) (A) (A) (A) (A) (A) (A) (A) (A) (A) (A)
                 (A) (A) (A) (A) (A) (A) (A) (A) (A) (A) (A) (A)
       Virtual   (A) (A) (A) (A) (A) (A) (A) (A) (A) (A) (A) (A)
                 (A) (A) (A) (A) (A) (A) (A) (A) (A) (A) (A) (A)
                 (A) (A) (A) (A) (A) (A) (A) (A) (A) (A) (A) (A)
                 (A) (A) (A) (A) (A) (A) (A) (A) (A) (A) (A) (A)
                 (A) (A) (A) (A) (A) (A) (A) (A) (A) (A) (A) (A)
                 (A) (A) (A) (A) (A) (A) (A) (A) (A) (A) (A) (A)
                 (A) (A) (A) (A) (A) (A) (A) (A) (A) (A) (A) (A)
                 (A) (A) (A) (A) (A) (A) (A) (A) (A) (A) (A) (A)
                 (A) (A) (A) (A) (A) (A) (A) (A) (A) (A) (A) (A)
                 (A) (A) (A) (A) (A) (A) (A) (A) (A) (A) (A) (A)
                 (A) (A) (A) (A) (A) (A) (A) (A) (A) (A) (A) (A)
                 (A) (A) (A) (A) (A) (A) (A) (A) (A) (A) (A) (A)
                 (A) (A) (A) (A) (A) (A) (A) (A) (A) (A) (A) (A)
                 (A) (A) (A) (A) (A) (A) (A) (A) (A) (A) (A) (A)
                 (A) (A) (A) (A) (A) (A) (A) (A) (A) (A) (A) (A)
                 (A) (A) (A) (A) (A) (A) (A) (A) (A) (A) (A) (A)
                 (A) (A) (A) (A) (A) (A) (A) (A) (A) (A) (A) (A)
                 (A) (A) (A) (A) (A) (A) (A) (A) (A) (A) (A) (A)
                 (A) (A) (A) (A) (A) (A) (A) (A) (A) (A) (A) (A)
                 (A) (A) (A) (A) (A) (A) (A) (A) (A) (A) (A) (A)
                 (A) (A) (A) (A) (A) (A) (A) (A) (A) (A) (A) (A)
                 (A) (A) (A) (A) (A) (A) (A) (A) (A) (A) (A) (A)
                 (A) (A) (A) (A) (A) (A) (A) (A) (A) (A) (A) (A)
                 (A) (A) (A) (A) (A) (A) (A) (A) (A) (A) (A) (A)
                 (A) (A) (A) (A) (A) (A) (A) (A) (A) (A) (A) (A)
                 (A) (A) (A) (A) (A) (A) (A) (A) (A) (A) (A) (A)
                 (A) (A) (A) (A) (A) (A) (A) (A) (A) (A) (A) (A)
                 (A) (A) (A) (A) (A) (A) (A) (A) (A) (A) (A) (A)
                 (A) (A) (A) (A) (A) (A) (A) (A) (A) (A) (A) (A)
                 (A)
 The electronic state is 1-A.
 Alpha  occ. eigenvalues --  -88.97416 -14.51644 -14.51644 -14.43240 -14.43239
 Alpha  occ. eigenvalues --  -14.41829 -14.41828 -14.41754 -14.41754 -14.40941
 Alpha  occ. eigenvalues --  -14.40934 -14.40869 -14.40866 -14.37942 -14.37942
 Alpha  occ. eigenvalues --  -14.37821 -14.37821 -14.37042 -14.37042 -14.36852
 Alpha  occ. eigenvalues --  -14.36852 -10.31761 -10.31760 -10.29341 -10.29316
 Alpha  occ. eigenvalues --  -10.28968 -10.28933 -10.28522 -10.28502 -10.28416
 Alpha  occ. eigenvalues --  -10.28415 -10.27827 -10.27827 -10.27668 -10.27668
 Alpha  occ. eigenvalues --  -10.27389 -10.27389 -10.27113 -10.27113 -10.26888
 Alpha  occ. eigenvalues --  -10.26888 -10.26789 -10.26788 -10.26737 -10.26737
 Alpha  occ. eigenvalues --  -10.25865 -10.25865 -10.25751 -10.25751 -10.25345
 Alpha  occ. eigenvalues --  -10.25345 -10.25279 -10.25279 -10.25212 -10.25212
 Alpha  occ. eigenvalues --  -10.25098 -10.25098  -8.04982  -6.01413  -6.00879
 Alpha  occ. eigenvalues --   -6.00369  -1.16524  -1.16524  -1.06064  -1.05835
 Alpha  occ. eigenvalues --   -1.04557  -1.03659  -1.01106  -1.01055  -0.97543
 Alpha  occ. eigenvalues --   -0.95421  -0.95417  -0.95105  -0.95105  -0.94852
 Alpha  occ. eigenvalues --   -0.94814  -0.94139  -0.94139  -0.93275  -0.93271
 Alpha  occ. eigenvalues --   -0.92891  -0.90329  -0.88822  -0.88481  -0.83469
 Alpha  occ. eigenvalues --   -0.83222  -0.83057  -0.82048  -0.82005  -0.81464
 Alpha  occ. eigenvalues --   -0.79943  -0.78505  -0.75639  -0.73967  -0.73337
 Alpha  occ. eigenvalues --   -0.73005  -0.72841  -0.70931  -0.70899  -0.69609
 Alpha  occ. eigenvalues --   -0.68916  -0.67328  -0.66816  -0.66183  -0.65172
 Alpha  occ. eigenvalues --   -0.64092  -0.62898  -0.62057  -0.61764  -0.61497
 Alpha  occ. eigenvalues --   -0.61255  -0.60394  -0.58936  -0.58367  -0.57511
 Alpha  occ. eigenvalues --   -0.57491  -0.56945  -0.55612  -0.54876  -0.54862
 Alpha  occ. eigenvalues --   -0.54418  -0.54114  -0.54039  -0.53136  -0.52925
 Alpha  occ. eigenvalues --   -0.52382  -0.51858  -0.51552  -0.51034  -0.50128
 Alpha  occ. eigenvalues --   -0.49919  -0.49876  -0.49842  -0.49378  -0.48493
 Alpha  occ. eigenvalues --   -0.48322  -0.48137  -0.47862  -0.46642  -0.46085
 Alpha  occ. eigenvalues --   -0.45895  -0.45751  -0.45747  -0.44633  -0.44469
 Alpha  occ. eigenvalues --   -0.44375  -0.43996  -0.43676  -0.42561  -0.42064
 Alpha  occ. eigenvalues --   -0.41373  -0.40117  -0.38670  -0.38512  -0.38511
 Alpha  occ. eigenvalues --   -0.37860  -0.37356  -0.37356  -0.37101  -0.37100
 Alpha  occ. eigenvalues --   -0.36979  -0.36300  -0.36289  -0.36211  -0.35888
 Alpha  occ. eigenvalues --   -0.35815  -0.35595  -0.35526  -0.35501  -0.35282
 Alpha  occ. eigenvalues --   -0.35281  -0.35220  -0.35209  -0.34846  -0.33496
 Alpha  occ. eigenvalues --   -0.33238  -0.32731  -0.31676  -0.30938  -0.30687
 Alpha  occ. eigenvalues --   -0.30604  -0.30413  -0.30316  -0.29658  -0.29608
 Alpha  occ. eigenvalues --   -0.28369  -0.27325  -0.27319  -0.25738  -0.25689
 Alpha  occ. eigenvalues --   -0.25189  -0.21212
 Alpha virt. eigenvalues --   -0.16205  -0.11796  -0.11772  -0.09245  -0.08761
 Alpha virt. eigenvalues --   -0.08709  -0.07410  -0.07410  -0.05856  -0.05033
 Alpha virt. eigenvalues --   -0.04070  -0.03371  -0.03343  -0.01226   0.00305
 Alpha virt. eigenvalues --    0.00305   0.00995   0.01107   0.01681   0.01681
 Alpha virt. eigenvalues --    0.02535   0.04769   0.04845   0.06130   0.06130
 Alpha virt. eigenvalues --    0.06717   0.06724   0.07130   0.07810   0.07822
 Alpha virt. eigenvalues --    0.08874   0.09797   0.09955   0.10072   0.10634
 Alpha virt. eigenvalues --    0.10738   0.11216   0.11434   0.11754   0.11895
 Alpha virt. eigenvalues --    0.12097   0.12655   0.13611   0.14344   0.14540
 Alpha virt. eigenvalues --    0.15227   0.15649   0.16383   0.16398   0.16422
 Alpha virt. eigenvalues --    0.17192   0.17193   0.18162   0.18552   0.18591
 Alpha virt. eigenvalues --    0.19104   0.19791   0.20176   0.20341   0.20787
 Alpha virt. eigenvalues --    0.21364   0.21815   0.21831   0.22714   0.22924
 Alpha virt. eigenvalues --    0.23595   0.24669   0.24826   0.25316   0.25756
 Alpha virt. eigenvalues --    0.26162   0.26377   0.26729   0.27865   0.28242
 Alpha virt. eigenvalues --    0.29603   0.30700   0.30952   0.31706   0.32560
 Alpha virt. eigenvalues --    0.32607   0.32877   0.33087   0.33208   0.33292
 Alpha virt. eigenvalues --    0.34826   0.34902   0.35248   0.36541   0.36677
 Alpha virt. eigenvalues --    0.36949   0.37040   0.37174   0.37380   0.37934
 Alpha virt. eigenvalues --    0.37987   0.38605   0.39537   0.39863   0.40311
 Alpha virt. eigenvalues --    0.41727   0.42151   0.43524   0.44543   0.45297
 Alpha virt. eigenvalues --    0.45443   0.45839   0.45841   0.46632   0.46808
 Alpha virt. eigenvalues --    0.47387   0.47401   0.47585   0.47650   0.48510
 Alpha virt. eigenvalues --    0.49104   0.49131   0.50159   0.50450   0.50521
 Alpha virt. eigenvalues --    0.50546   0.50977   0.51465   0.52052   0.52499
 Alpha virt. eigenvalues --    0.52554   0.52614   0.52653   0.52706   0.52779
 Alpha virt. eigenvalues --    0.52801   0.53039   0.53189   0.53507   0.53905
 Alpha virt. eigenvalues --    0.54814   0.55447   0.56049   0.56182   0.56564
 Alpha virt. eigenvalues --    0.56794   0.57368   0.57400   0.58078   0.58538
 Alpha virt. eigenvalues --    0.58939   0.59343   0.59927   0.59945   0.60148
 Alpha virt. eigenvalues --    0.60196   0.60404   0.60757   0.60815   0.61090
 Alpha virt. eigenvalues --    0.61240   0.61571   0.61603   0.61983   0.62024
 Alpha virt. eigenvalues --    0.62471   0.62615   0.62738   0.63363   0.63545
 Alpha virt. eigenvalues --    0.63896   0.64128   0.64154   0.64452   0.64607
 Alpha virt. eigenvalues --    0.64714   0.65146   0.65409   0.65451   0.65546
 Alpha virt. eigenvalues --    0.66120   0.66315   0.66320   0.66490   0.66832
 Alpha virt. eigenvalues --    0.66854   0.67071   0.67230   0.67898   0.69050
 Alpha virt. eigenvalues --    0.69234   0.69623   0.70898   0.71560   0.71563
 Alpha virt. eigenvalues --    0.71979   0.72661   0.72736   0.73002   0.73004
 Alpha virt. eigenvalues --    0.73329   0.73796   0.75152   0.75521   0.75982
 Alpha virt. eigenvalues --    0.76753   0.76804   0.77107   0.77369   0.77730
 Alpha virt. eigenvalues --    0.78037   0.78109   0.78563   0.78954   0.79176
 Alpha virt. eigenvalues --    0.79885   0.80164   0.80677   0.81182   0.81612
 Alpha virt. eigenvalues --    0.82226   0.82317   0.82713   0.83210   0.83212
 Alpha virt. eigenvalues --    0.83427   0.83885   0.84199   0.84641   0.84928
 Alpha virt. eigenvalues --    0.85089   0.85335   0.85354   0.86328   0.86574
 Alpha virt. eigenvalues --    0.86774   0.87319   0.87723   0.88173   0.88391
 Alpha virt. eigenvalues --    0.88404   0.89245   0.89516   0.89621   0.89769
 Alpha virt. eigenvalues --    0.90794   0.91127   0.91867   0.91870   0.92475
 Alpha virt. eigenvalues --    0.94251   0.94304   0.94389   0.94777   0.95233
 Alpha virt. eigenvalues --    0.95243   0.95670   0.96828   0.97106   0.98068
 Alpha virt. eigenvalues --    0.98117   0.99337   1.00111   1.00887   1.01664
 Alpha virt. eigenvalues --    1.02121   1.02630   1.03533   1.03745   1.04493
 Alpha virt. eigenvalues --    1.05169   1.06476   1.07602   1.08484   1.09298
 Alpha virt. eigenvalues --    1.09707   1.09839   1.10190   1.10788   1.11075
 Alpha virt. eigenvalues --    1.11962   1.12142   1.13148   1.13937   1.14439
 Alpha virt. eigenvalues --    1.14948   1.16544   1.17004   1.17875   1.18062
 Alpha virt. eigenvalues --    1.19082   1.19329   1.20606   1.20693   1.22667
 Alpha virt. eigenvalues --    1.25208   1.25216   1.26420   1.26680   1.27970
 Alpha virt. eigenvalues --    1.28875   1.30167   1.30177   1.30757   1.32142
 Alpha virt. eigenvalues --    1.32267   1.34147   1.34518   1.36139   1.36806
 Alpha virt. eigenvalues --    1.38234   1.38824   1.39126   1.40522   1.40657
 Alpha virt. eigenvalues --    1.41069   1.42475   1.45054   1.45903   1.46825
 Alpha virt. eigenvalues --    1.51504   1.53037   1.55372   1.56106   1.56297
 Alpha virt. eigenvalues --    1.59309   1.59708   1.60431   1.61054   1.62166
 Alpha virt. eigenvalues --    1.64528   1.64751   1.68052   1.69114   1.70344
 Alpha virt. eigenvalues --    1.70692   1.72924   1.76518   1.78579   1.78642
 Alpha virt. eigenvalues --    1.79220   1.79248   1.82996   1.84129   1.84130
 Alpha virt. eigenvalues --    1.85827   1.89337   1.92040   1.94555   2.02315
 Alpha virt. eigenvalues --    2.02333   2.07342   2.07418   2.09644
          Condensed to atoms (all electrons):
 Mulliken charges:
               1
     1  C    0.142963
     2  C    0.142934
     3  C    0.223982
     4  C    0.223984
     5  C    0.100516
     6  C    0.100526
     7  S    0.666441
     8  N   -0.550151
     9  N   -0.550154
    10  N   -0.490384
    11  N   -0.490326
    12  C    0.298575
    13  C    0.124761
    14  C    0.130019
    15  C    0.734019
    16  C    0.298556
    17  C    0.124749
    18  C    0.130039
    19  C    0.734005
    20  N   -0.790069
    21  H    0.402648
    22  N   -0.790039
    23  H    0.402622
    24  C    0.022471
    25  C    0.013657
    26  C    0.013659
    27  C    0.022469
    28  N   -0.327382
    29  N   -0.329059
    30  N   -0.329075
    31  N   -0.327379
    32  H    0.163478
    33  H    0.160308
    34  H    0.160310
    35  H    0.163479
    36  C    0.052782
    37  H    0.179596
    38  C    0.052767
    39  H    0.179593
    40  N   -0.500409
    41  C    0.161715
    42  C    0.176617
    43  N   -0.500409
    44  C    0.161719
    45  C    0.176611
    46  C   -0.052815
    47  H    0.187897
    48  C   -0.051466
    49  H    0.199656
    50  C    0.128686
    51  C    0.126952
    52  C   -0.051470
    53  H    0.199655
    54  C   -0.052813
    55  H    0.187900
    56  C    0.126957
    57  C    0.128682
    58  C   -0.053757
    59  C   -0.054801
    60  C   -0.053757
    61  C   -0.054800
    62  N   -0.203440
    63  N   -0.203163
    64  N   -0.203163
    65  N   -0.203442
    66  N   -0.260557
    67  N   -0.197061
    68  N   -0.260553
    69  N   -0.197064
 Sum of Mulliken charges =  -0.00000
 Mulliken charges with hydrogens summed into heavy atoms:
               1
     1  C    0.142963
     2  C    0.142934
     3  C    0.223982
     4  C    0.223984
     5  C    0.100516
     6  C    0.100526
     7  S    0.666441
     8  N   -0.550151
     9  N   -0.550154
    10  N   -0.490384
    11  N   -0.490326
    12  C    0.298575
    13  C    0.124761
    14  C    0.130019
    15  C    0.734019
    16  C    0.298556
    17  C    0.124749
    18  C    0.130039
    19  C    0.734005
    20  N   -0.387421
    22  N   -0.387416
    24  C    0.185949
    25  C    0.173965
    26  C    0.173969
    27  C    0.185948
    28  N   -0.327382
    29  N   -0.329059
    30  N   -0.329075
    31  N   -0.327379
    36  C    0.232378
    38  C    0.232360
    40  N   -0.500409
    41  C    0.161715
    42  C    0.176617
    43  N   -0.500409
    44  C    0.161719
    45  C    0.176611
    46  C    0.135082
    48  C    0.148190
    50  C    0.128686
    51  C    0.126952
    52  C    0.148186
    54  C    0.135087
    56  C    0.126957
    57  C    0.128682
    58  C   -0.053757
    59  C   -0.054801
    60  C   -0.053757
    61  C   -0.054800
    62  N   -0.203440
    63  N   -0.203163
    64  N   -0.203163
    65  N   -0.203442
    66  N   -0.260557
    67  N   -0.197061
    68  N   -0.260553
    69  N   -0.197064
 Electronic spatial extent (au):  <R**2>=          66737.4537
 Charge=             -0.0000 electrons
 Dipole moment (field-independent basis, Debye):
    X=             -0.0010    Y=             -9.9428    Z=              0.0001  Tot=              9.9428
 Quadrupole moment (field-independent basis, Debye-Ang):
   XX=           -521.1548   YY=           -383.9063   ZZ=           -323.2243
   XY=              0.0034   XZ=             32.5068   YZ=             -0.0029
 Traceless Quadrupole moment (field-independent basis, Debye-Ang):
   XX=           -111.7264   YY=             25.5222   ZZ=             86.2042
   XY=              0.0034   XZ=             32.5068   YZ=             -0.0029
 Octapole moment (field-independent basis, Debye-Ang**2):
  XXX=             -0.2474  YYY=           -786.5843  ZZZ=              0.0162  XYY=              0.0311
  XXY=          -1501.4561  XXZ=             -0.0175  XZZ=             -0.0035  YZZ=            -81.6185
  YYZ=              0.0122  XYZ=            119.2195
 Hexadecapole moment (field-independent basis, Debye-Ang**3):
 XXXX=        -104363.3135 YYYY=         -23422.6985 ZZZZ=          -1861.9383 XXXY=             -0.4147
 XXXZ=           3117.1506 YYYX=              0.7775 YYYZ=             -0.0391 ZZZX=            228.1267
 ZZZY=             -0.0124 XXYY=         -23933.4338 XXZZ=         -12553.0094 YYZZ=          -3711.1945
 XXYZ=             -0.0384 YYXZ=           1901.6180 ZZXY=             -0.1878
 N-N= 6.697526546996D+03 E-N=-2.008568326626D+04  KE= 2.856896756923D+03
 Unable to Open any file for archive entry.
 1\1\GINC-ORFOZ194\SP\RB3LYP TD-FC\6-31G\C36H12N20S1\PINARS\30-Sep-2025
 \0\\# td=(nstates=10) b3lyp/6-31g\\Title Card Required\\0,1\C,0,-0.723
 57,0.58941,0.050869\C,0,0.723382,0.589376,-0.050354\C,0,1.48769,1.7819
 54,-0.172521\C,0,-1.487816,1.782056,0.172802\C,0,-0.734234,3.000516,0.
 062896\C,0,0.73422,3.00048,-0.062627\S,0,0.000077,5.403776,0.000391\N,
 0,1.304963,4.209386,-0.053722\N,0,-1.304874,4.209472,0.054373\N,0,-1.3
 87283,-0.62734,0.035914\N,0,1.387043,-0.627409,-0.035274\C,0,-2.91261,
 1.775735,0.408835\C,0,-3.843365,2.701291,0.993348\C,0,-5.15429,2.09595
 2,0.965664\C,0,-4.99113,0.813372,0.403854\C,0,2.912448,1.775542,-0.408
 784\C,0,3.843033,2.701067,-0.993549\C,0,5.154016,2.095885,-0.965933\C,
 0,4.991029,0.813344,-0.403949\N,0,-3.671329,0.660282,0.106578\H,0,-3.2
 0446,-0.208614,-0.176657\N,0,3.671304,0.660231,-0.106358\H,0,3.20454,-
 0.208648,0.177063\C,0,-6.046177,3.920074,1.99876\C,0,-4.74723,4.492225
 ,2.098264\C,0,4.74651,4.491874,-2.09898\C,0,6.045554,3.919947,-1.99943
 7\N,0,-6.262084,2.71991,1.453451\N,0,-3.654231,3.900591,1.606654\N,0,3
 .653641,3.9002,-1.607128\N,0,6.261685,2.719909,-1.453928\H,0,-6.90585,
 4.450786,2.390868\H,0,-4.612338,5.442504,2.601651\H,0,4.611434,5.44200
 9,-2.602591\H,0,6.905117,4.450723,-2.391698\C,0,-0.712431,-1.760336,0.
 002227\H,0,-1.271973,-2.687234,-0.018566\C,0,0.712133,-1.760366,-0.001
 463\H,0,1.271631,-2.687287,0.019479\N,0,-5.873323,-0.222301,0.155624\C
 ,0,-7.664988,-1.360055,-0.00229\C,0,-6.555224,-2.1553,-0.436124\N,0,5.
 873327,-0.22226,-0.155811\C,0,7.66509,-1.35989,0.001866\C,0,6.555492,-
 2.155068,0.436251\C,0,-6.734927,-3.479379,-0.878108\H,0,-5.897312,-4.0
 8128,-1.204745\C,0,-8.975719,-1.87144,-0.003745\H,0,-9.813298,-1.26958
 3,0.323157\C,0,-8.029133,-3.985279,-0.87839\C,0,-9.154042,-3.178381,-0
 .44054\C,0,8.975841,-1.871228,0.003072\H,0,9.813293,-1.269447,-0.32429
 7\C,0,6.735374,-3.479017,0.878547\H,0,5.897887,-4.080836,1.205664\C,0,
 9.154343,-3.178052,0.440137\C,0,8.0296,-3.984865,0.878578\C,0,-10.4674
 69,-3.741465,-0.460009\C,0,-8.260379,-5.325691,-1.317424\C,0,10.467788
 ,-3.741104,0.459314\C,0,8.261036,-5.325127,1.31797\N,0,-8.45131,-6.426
 731,-1.67774\N,0,-11.546093,-4.205084,-0.476421\N,0,11.546428,-4.20469
 4,0.475504\N,0,8.452116,-6.426053,1.678559\N,0,-5.413357,-1.419363,-0.
 331552\N,0,-7.215983,-0.127088,0.37192\N,0,5.413569,-1.419191,0.331853
 \N,0,7.215938,-0.127017,-0.37246\\Version=ES64L-G16RevC.02\State=1-A\H
 F=-2871.2277365\RMSD=5.074e-09\PG=C01 [X(C36H12N20S1)]\\@
 The archive entry for this job was punched.


 ALL MEN WHO EXPLORE
 DEPLORE
 THAT FRUSTRATING HURDLE
 THE GIRDLE.

         -- COLIN FLETCHER
 Job cpu time:       0 days  1 hours 36 minutes 19.5 seconds.
 Elapsed time:       0 days  0 hours  1 minutes  5.6 seconds.
 File lengths (MBytes):  RWF=   2903 Int=      0 D2E=      0 Chk=    133 Scr=      1
 Normal termination of Gaussian 16 at Tue Sep 30 11:21:30 2025.
