SLURM_NODELIST orfoz238
NUMBER OF TASKS 1
NUMBER OF CORES=110
 Entering Gaussian System, Link 0=/arf/sw/apps/gaussian/avx2/g16/g16
 Initial command:
 /arf/sw/apps/gaussian/avx2/g16/l1.exe "/tmp/2829265/Gau-1341521.inp" -scrdir="/tmp/2829265/"
 Entering Link 1 = /arf/sw/apps/gaussian/avx2/g16/l1.exe PID=   1341522.
  
 Copyright (c) 1988-2021, Gaussian, Inc.  All Rights Reserved.
  
 This is part of the Gaussian(R) 16 program.  It is based on
 the Gaussian(R) 09 system (copyright 2009, Gaussian, Inc.),
 the Gaussian(R) 03 system (copyright 2003, Gaussian, Inc.),
 the Gaussian(R) 98 system (copyright 1998, Gaussian, Inc.),
 the Gaussian(R) 94 system (copyright 1995, Gaussian, Inc.),
 the Gaussian 92(TM) system (copyright 1992, Gaussian, Inc.),
 the Gaussian 90(TM) system (copyright 1990, Gaussian, Inc.),
 the Gaussian 88(TM) system (copyright 1988, Gaussian, Inc.),
 the Gaussian 86(TM) system (copyright 1986, Carnegie Mellon
 University), and the Gaussian 82(TM) system (copyright 1983,
 Carnegie Mellon University). Gaussian is a federally registered
 trademark of Gaussian, Inc.
  
 This software contains proprietary and confidential information,
 including trade secrets, belonging to Gaussian, Inc.
  
 This software is provided under written license and may be
 used, copied, transmitted, or stored only in accord with that
 written license.
  
 The following legend is applicable only to US Government
 contracts under FAR:
  
                    RESTRICTED RIGHTS LEGEND
  
 Use, reproduction and disclosure by the US Government is
 subject to restrictions as set forth in subparagraphs (a)
 and (c) of the Commercial Computer Software - Restricted
 Rights clause in FAR 52.227-19.
  
 Gaussian, Inc.
 340 Quinnipiac St., Bldg. 40, Wallingford CT 06492
  
  
 ---------------------------------------------------------------
 Warning -- This program may not be used in any manner that
 competes with the business of Gaussian, Inc. or will provide
 assistance to any competitor of Gaussian, Inc.  The licensee
 of this program is prohibited from giving any competitor of
 Gaussian, Inc. access to this program.  By using this program,
 the user acknowledges that Gaussian, Inc. is engaged in the
 business of creating and licensing software in the field of
 computational chemistry and represents and warrants to the
 licensee that it is not a competitor of Gaussian, Inc. and that
 it will not use this program in any manner prohibited above.
 ---------------------------------------------------------------
  

 Cite this work as:
 Gaussian 16, Revision C.02,
 M. J. Frisch, G. W. Trucks, H. B. Schlegel, G. E. Scuseria, 
 M. A. Robb, J. R. Cheeseman, G. Scalmani, V. Barone, 
 G. A. Petersson, H. Nakatsuji, X. Li, M. Caricato, A. V. Marenich, 
 J. Bloino, B. G. Janesko, R. Gomperts, B. Mennucci, H. P. Hratchian, 
 J. V. Ortiz, A. F. Izmaylov, J. L. Sonnenberg, D. Williams-Young, 
 F. Ding, F. Lipparini, F. Egidi, J. Goings, B. Peng, A. Petrone, 
 T. Henderson, D. Ranasinghe, V. G. Zakrzewski, J. Gao, N. Rega, 
 G. Zheng, W. Liang, M. Hada, M. Ehara, K. Toyota, R. Fukuda, 
 J. Hasegawa, M. Ishida, T. Nakajima, Y. Honda, O. Kitao, H. Nakai, 
 T. Vreven, K. Throssell, J. A. Montgomery, Jr., J. E. Peralta, 
 F. Ogliaro, M. J. Bearpark, J. J. Heyd, E. N. Brothers, K. N. Kudin, 
 V. N. Staroverov, T. A. Keith, R. Kobayashi, J. Normand, 
 K. Raghavachari, A. P. Rendell, J. C. Burant, S. S. Iyengar, 
 J. Tomasi, M. Cossi, J. M. Millam, M. Klene, C. Adamo, R. Cammi, 
 J. W. Ochterski, R. L. Martin, K. Morokuma, O. Farkas, 
 J. B. Foresman, and D. J. Fox, Gaussian, Inc., Wallingford CT, 2019.
 
 ******************************************
 Gaussian 16:  ES64L-G16RevC.02  7-Dec-2021
                30-Sep-2025 
 ******************************************
 %chk=4g_td.chk
 %nprocshared=110
 Will use up to  110 processors via shared memory.
 %mem=100GB
 -----------------------------
 # td=(nstates=10) b3lyp/6-31g
 -----------------------------
 1/38=1,172=1/1;
 2/12=2,17=6,18=5,40=1/2;
 3/5=1,6=6,11=9,25=1,30=1,74=-5/1,2,3,8;
 4//1;
 5/5=2,38=5/2;
 8/6=1,10=2,108=10/1;
 9/41=10,42=1,70=2/14;
 6/7=2,8=2,9=2,10=2/1;
 99/5=1,9=1/99;
 -------------------
 Title Card Required
 -------------------
 Symbolic Z-matrix:
 Charge =  0 Multiplicity = 1
 C                    -0.71549  -0.63912  -0.11688 
 C                     0.71547  -0.63914   0.11692 
 C                     1.46169   0.54874   0.27103 
 C                    -1.46168   0.54878  -0.27094 
 C                    -0.72672   1.77414  -0.11416 
 C                     0.72678   1.77412   0.11415 
 S                     0.0001    4.17207  -0.00038 
 N                     1.3019    2.98241   0.15358 
 N                    -1.30182   2.98244  -0.15358 
 N                    -1.38713  -1.84665  -0.20748 
 N                     1.38707  -1.84668   0.20757 
 C                    -2.8728    0.563    -0.57354 
 C                    -3.59203   1.42315  -1.40548 
 C                    -5.03087   1.25456  -1.37074 
 C                    -5.44829   0.23874  -0.51743 
 C                     2.8728    0.56289   0.57371 
 C                     3.59203   1.42288   1.40581 
 C                     5.03087   1.25428   1.37105 
 C                     5.44827   0.23859   0.51758 
 C                    -5.27189   2.93255  -2.92552 
 C                    -3.84282   3.05148  -3.01382 
 C                     3.84284   3.05092   3.01445 
 C                     5.27192   2.93202   2.92609 
 N                    -5.86103   2.04736  -2.14007 
 N                    -3.01863   2.32269  -2.28232 
 N                     3.01864   2.32226   2.28283 
 N                     5.86104   2.04696   2.14049 
 H                    -5.91008   3.56717  -3.53056 
 H                    -3.4012    3.75046  -3.71591 
 H                     3.40123   3.74977   3.71667 
 H                     5.91011   3.56655   3.53122 
 C                    -0.70839  -2.97114  -0.09986 
 H                    -1.25956  -3.90258  -0.17159 
 C                     0.70829  -2.97116   0.09997 
 H                     1.25944  -3.90262   0.17173 
 N                    -6.74135  -0.20467  -0.24432 
 C                    -8.96488  -0.46551  -0.35755 
 C                    -8.44315  -1.32101   0.70352 
 N                     6.74133  -0.20476   0.24436 
 C                     8.96488  -0.46555   0.35748 
 C                     8.44312  -1.32094  -0.70368 
 C                    -9.33057  -2.13056   1.45792 
 H                    -8.96111  -2.77149   2.25031 
 C                    -10.35626  -0.44809  -0.63105 
 H                    -10.75874   0.18195  -1.41602 
 C                    -10.68464  -2.09976   1.17555 
 C                    -11.20655  -1.24565   0.11411 
 C                     10.35627  -0.44814   0.63092 
 H                     10.75877   0.18182   1.41594 
 C                     9.33054  -2.13039  -1.45821 
 H                     8.96106  -2.77124  -2.25066 
 C                     11.20655  -1.24559  -0.11436 
 C                     10.68462  -2.09958  -1.17589 
 C                    -7.89196   0.20929  -0.92404 
 H                    -7.82022   0.94139  -1.70845 
 C                    -7.0696   -1.13437   0.7485 
 H                    -6.32014  -1.55675   1.39525 
 C                     7.06957  -1.13433  -0.74858 
 H                     6.32009  -1.55666  -1.39535 
 C                     7.89197   0.20915   0.92408 
 H                     7.82024   0.94117   1.70857 
 S                    -4.03309  -0.59038   0.21319 
 S                     4.03306  -0.59051  -0.21305 
 C                    -11.57998  -2.91571   1.93381 
 C                    -12.60885  -1.23123  -0.15973 
 C                     11.57994  -2.91543  -1.93428 
 C                     12.60886  -1.23117   0.15941 
 N                    -13.75862  -1.20701  -0.3985 
 N                    -12.30046  -3.59332   2.56721 
 N                     13.75863  -1.20695   0.39815 
 N                     12.30041  -3.59296  -2.56779 
 
 Stoichiometry    C40H14N14S3
 Framework group  C1[X(C40H14N14S3)]
 Deg. of freedom   207
 Full point group                 C1      NOp   1
 Largest Abelian subgroup         C1      NOp   1
 Largest concise Abelian subgroup C1      NOp   1
                         Standard orientation:                         
 ---------------------------------------------------------------------
 Center     Atomic      Atomic             Coordinates (Angstroms)
 Number     Number       Type             X           Y           Z
 ---------------------------------------------------------------------
      1          6           0       -0.715491   -0.639116   -0.116880
      2          6           0        0.715471   -0.639135    0.116922
      3          6           0        1.461691    0.548740    0.271027
      4          6           0       -1.461681    0.548781   -0.270941
      5          6           0       -0.726719    1.774142   -0.114158
      6          6           0        0.726777    1.774123    0.114147
      7         16           0        0.000098    4.172071   -0.000384
      8          7           0        1.301900    2.982408    0.153581
      9          7           0       -1.301819    2.982437   -0.153580
     10          7           0       -1.387130   -1.846645   -0.207483
     11          7           0        1.387070   -1.846682    0.207568
     12          6           0       -2.872801    0.563004   -0.573543
     13          6           0       -3.592028    1.423151   -1.405476
     14          6           0       -5.030871    1.254564   -1.370744
     15          6           0       -5.448286    0.238738   -0.517433
     16          6           0        2.872798    0.562891    0.573705
     17          6           0        3.592027    1.422875    1.405812
     18          6           0        5.030868    1.254282    1.371053
     19          6           0        5.448273    0.238590    0.517579
     20          6           0       -5.271895    2.932546   -2.925522
     21          6           0       -3.842819    3.051478   -3.013824
     22          6           0        3.842842    3.050916    3.014450
     23          6           0        5.271916    2.932018    2.926091
     24          7           0       -5.861033    2.047363   -2.140074
     25          7           0       -3.018630    2.322692   -2.282317
     26          7           0        3.018643    2.322255    2.282829
     27          7           0        5.861042    2.046962    2.140490
     28          1           0       -5.910083    3.567170   -3.530557
     29          1           0       -3.401196    3.750457   -3.715911
     30          1           0        3.401228    3.749772    3.716665
     31          1           0        5.910113    3.566545    3.531218
     32          6           0       -0.708387   -2.971138   -0.099858
     33          1           0       -1.259560   -3.902584   -0.171594
     34          6           0        0.708294   -2.971158    0.099965
     35          1           0        1.259438   -3.902618    0.171726
     36          7           0       -6.741347   -0.204670   -0.244315
     37          6           0       -8.964882   -0.465507   -0.357554
     38          6           0       -8.443146   -1.321008    0.703524
     39          7           0        6.741333   -0.204756    0.244355
     40          6           0        8.964879   -0.465553    0.357475
     41          6           0        8.443120   -1.320943   -0.703682
     42          6           0       -9.330575   -2.130562    1.457922
     43          1           0       -8.961113   -2.771494    2.250309
     44          6           0      -10.356261   -0.448093   -0.631054
     45          1           0      -10.758744    0.181946   -1.416018
     46          6           0      -10.684643   -2.099755    1.175552
     47          6           0      -11.206551   -1.245654    0.114106
     48          6           0       10.356268   -0.448138    0.630922
     49          1           0       10.758768    0.181820    1.415941
     50          6           0        9.330538   -2.130390   -1.458208
     51          1           0        8.961060   -2.771239   -2.250655
     52          6           0       11.206547   -1.245594   -0.114364
     53          6           0       10.684617   -2.099584   -1.175888
     54          6           0       -7.891962    0.209289   -0.924042
     55          1           0       -7.820216    0.941392   -1.708446
     56          6           0       -7.069600   -1.134365    0.748500
     57          1           0       -6.320137   -1.556750    1.395246
     58          6           0        7.069568   -1.134328   -0.748581
     59          1           0        6.320089   -1.556658   -1.395345
     60          6           0        7.891966    0.209154    0.924082
     61          1           0        7.820235    0.941166    1.708572
     62         16           0       -4.033087   -0.590383    0.213189
     63         16           0        4.033061   -0.590505   -0.213045
     64          6           0      -11.579976   -2.915712    1.933814
     65          6           0      -12.608854   -1.231226   -0.159727
     66          6           0       11.579938   -2.915433   -1.934280
     67          6           0       12.608861   -1.231165    0.159414
     68          7           0      -13.758619   -1.207014   -0.398503
     69          7           0      -12.300456   -3.593324    2.567212
     70          7           0       13.758634   -1.206954    0.398148
     71          7           0       12.300409   -3.592955   -2.567785
 ---------------------------------------------------------------------
 Rotational constants (GHZ):           0.1143109           0.0120610           0.0115655
 Standard basis: 6-31G (6D, 7F)
 There are   553 symmetry adapted cartesian basis functions of A   symmetry.
 There are   553 symmetry adapted basis functions of A   symmetry.
   553 basis functions,  1382 primitive gaussians,   553 cartesian basis functions
   200 alpha electrons      200 beta electrons
       nuclear repulsion energy      7035.4166919710 Hartrees.
 NAtoms=   71 NActive=   71 NUniq=   71 SFac= 1.00D+00 NAtFMM=   60 NAOKFM=T Big=T
 Integral buffers will be    131072 words long.
 Regular integral format.
 Two-electron integral symmetry is turned on.
 One-electron integrals computed using PRISM.
 NBasis=   553 RedAO= T EigKep=  2.78D-04  NBF=   553
 NBsUse=   553 1.00D-06 EigRej= -1.00D+00 NBFU=   553
 ExpMin= 1.17D-01 ExpMax= 2.19D+04 ExpMxC= 3.30D+03 IAcc=3 IRadAn=         5 AccDes= 0.00D+00
 Harris functional with IExCor=  402 and IRadAn=       5 diagonalized for initial guess.
 HarFok:  IExCor=  402 AccDes= 0.00D+00 IRadAn=         5 IDoV= 1 UseB2=F ITyADJ=14
 ICtDFT=  3500011 ScaDFX=  1.000000  1.000000  1.000000  1.000000
 FoFCou: FMM=F IPFlag=           0 FMFlag=      100000 FMFlg1=        2001
         NFxFlg=           0 DoJE=T BraDBF=F KetDBF=T FulRan=T
         wScrn=  0.000000 ICntrl=       500 IOpCl=  0 I1Cent=   200000004 NGrid=           0
         NMat0=    1 NMatS0=      1 NMatT0=    0 NMatD0=    1 NMtDS0=    0 NMtDT0=    0
 Petite list used in FoFCou.
 Requested convergence on RMS density matrix=1.00D-08 within 128 cycles.
 Requested convergence on MAX density matrix=1.00D-06.
 Requested convergence on             energy=1.00D-06.
 No special actions if energy rises.
 Integral accuracy reduced to 1.0D-05 until final iterations.
 Initial convergence to 1.0D-05 achieved.  Increase integral accuracy.
 SCF Done:  E(RB3LYP) =  -3492.78740196     A.U. after   19 cycles
            NFock= 19  Conv=0.76D-08     -V/T= 2.0044
 DoSCS=F DFT=T ScalE2(SS,OS)=  1.000000  1.000000
 ExpMin= 1.17D-01 ExpMax= 2.19D+04 ExpMxC= 3.30D+03 IAcc=3 IRadAn=         5 AccDes= 0.00D+00
 HarFok:  IExCor=  205 AccDes= 0.00D+00 IRadAn=         5 IDoV=-2 UseB2=F ITyADJ=14
 ICtDFT= 12500011 ScaDFX=  1.000000  1.000000  1.000000  1.000000
 GSVD:  LWork=       -5313 too small for GESVD, short by       24840 words or       24840 for optimal perf.
 Range of M.O.s used for correlation:    70   553
 NBasis=   553 NAE=   200 NBE=   200 NFC=    69 NFV=     0
 NROrb=    484 NOA=   131 NOB=   131 NVA=   353 NVB=   353

 **** Warning!!: The largest alpha MO coefficient is  0.14262345D+02


 **** Warning!!: The smallest alpha delta epsilon is  0.60926325D-01

 Orbital symmetries:
       Occupied  (A) (A) (A) (A) (A) (A) (A) (A) (A) (A) (A) (A)
                 (A) (A) (A) (A) (A) (A) (A) (A) (A) (A) (A) (A)
                 (A) (A) (A) (A) (A) (A) (A) (A) (A) (A) (A) (A)
                 (A) (A) (A) (A) (A) (A) (A) (A) (A) (A) (A) (A)
                 (A) (A) (A) (A) (A) (A) (A) (A) (A) (A) (A) (A)
                 (A) (A) (A) (A) (A) (A) (A) (A) (A) (A) (A) (A)
                 (A) (A) (A) (A) (A) (A) (A) (A) (A) (A) (A) (A)
                 (A) (A) (A) (A) (A) (A) (A) (A) (A) (A) (A) (A)
                 (A) (A) (A) (A) (A) (A) (A) (A) (A) (A) (A) (A)
                 (A) (A) (A) (A) (A) (A) (A) (A) (A) (A) (A) (A)
                 (A) (A) (A) (A) (A) (A) (A) (A) (A) (A) (A) (A)
                 (A) (A) (A) (A) (A) (A) (A) (A) (A) (A) (A) (A)
                 (A) (A) (A) (A) (A) (A) (A) (A) (A) (A) (A) (A)
                 (A) (A) (A) (A) (A) (A) (A) (A) (A) (A) (A) (A)
                 (A) (A) (A) (A) (A) (A) (A) (A) (A) (A) (A) (A)
                 (A) (A) (A) (A) (A) (A) (A) (A) (A) (A) (A) (A)
                 (A) (A) (A) (A) (A) (A) (A) (A)
       Virtual   (A) (A) (A) (A) (A) (A) (A) (A) (A) (A) (A) (A)
                 (A) (A) (A) (A) (A) (A) (A) (A) (A) (A) (A) (A)
                 (A) (A) (A) (A) (A) (A) (A) (A) (A) (A) (A) (A)
                 (A) (A) (A) (A) (A) (A) (A) (A) (A) (A) (A) (A)
                 (A) (A) (A) (A) (A) (A) (A) (A) (A) (A) (A) (A)
                 (A) (A) (A) (A) (A) (A) (A) (A) (A) (A) (A) (A)
                 (A) (A) (A) (A) (A) (A) (A) (A) (A) (A) (A) (A)
                 (A) (A) (A) (A) (A) (A) (A) (A) (A) (A) (A) (A)
                 (A) (A) (A) (A) (A) (A) (A) (A) (A) (A) (A) (A)
                 (A) (A) (A) (A) (A) (A) (A) (A) (A) (A) (A) (A)
                 (A) (A) (A) (A) (A) (A) (A) (A) (A) (A) (A) (A)
                 (A) (A) (A) (A) (A) (A) (A) (A) (A) (A) (A) (A)
                 (A) (A) (A) (A) (A) (A) (A) (A) (A) (A) (A) (A)
                 (A) (A) (A) (A) (A) (A) (A) (A) (A) (A) (A) (A)
                 (A) (A) (A) (A) (A) (A) (A) (A) (A) (A) (A) (A)
                 (A) (A) (A) (A) (A) (A) (A) (A) (A) (A) (A) (A)
                 (A) (A) (A) (A) (A) (A) (A) (A) (A) (A) (A) (A)
                 (A) (A) (A) (A) (A) (A) (A) (A) (A) (A) (A) (A)
                 (A) (A) (A) (A) (A) (A) (A) (A) (A) (A) (A) (A)
                 (A) (A) (A) (A) (A) (A) (A) (A) (A) (A) (A) (A)
                 (A) (A) (A) (A) (A) (A) (A) (A) (A) (A) (A) (A)
                 (A) (A) (A) (A) (A) (A) (A) (A) (A) (A) (A) (A)
                 (A) (A) (A) (A) (A) (A) (A) (A) (A) (A) (A) (A)
                 (A) (A) (A) (A) (A) (A) (A) (A) (A) (A) (A) (A)
                 (A) (A) (A) (A) (A) (A) (A) (A) (A) (A) (A) (A)
                 (A) (A) (A) (A) (A) (A) (A) (A) (A) (A) (A) (A)
                 (A) (A) (A) (A) (A) (A) (A) (A) (A) (A) (A) (A)
                 (A) (A) (A) (A) (A) (A) (A) (A) (A) (A) (A) (A)
                 (A) (A) (A) (A) (A) (A) (A) (A) (A) (A) (A) (A)
                 (A) (A) (A) (A) (A)
    40 initial guesses have been made.
 Convergence on wavefunction:    0.001000000000000
 Iteration     1 Dimension    40 NMult     0 NNew     40
 CISAX will form    40 AO SS matrices at one time.
 New state      1 was old state      3
 New state      3 was old state      1
 New state      6 was old state      7
 New state      7 was old state      8
 New state      8 was old state     14
 New state      9 was old state     12
 New state     10 was old state      9
 Iteration     2 Dimension    60 NMult    40 NNew     20
 New state      1 was old state      3
 New state      3 was old state      1
 New state      8 was old state      9
 New state      9 was old state      8
 Iteration     3 Dimension    80 NMult    60 NNew     20
 No map to state     10
 Iteration     4 Dimension   100 NMult    80 NNew     20
 Iteration     5 Dimension   118 NMult   100 NNew     18
 Iteration     6 Dimension   124 NMult   118 NNew      6
 Iteration     7 Dimension   130 NMult   124 NNew      6
 Iteration     8 Dimension   132 NMult   130 NNew      2
 Iteration     9 Dimension   134 NMult   132 NNew      2
 Iteration    10 Dimension   136 NMult   134 NNew      2
 Convergence on energies, max DE= 1.23D-06.
 ***********************************************************************
 Excited states from <AA,BB:AA,BB> singles matrix:
 ***********************************************************************
 
 Ground to excited state transition densities written to RWF  633
 Ground to excited state transition electric dipole moments (Au):
       state          X           Y           Z        Dip. S.      Osc.
         1        -4.6664      0.0007     -0.3941     21.9305      0.7741
         2        -0.0029     -0.0037     -0.0003      0.0000      0.0000
         3        -0.4947      0.0001     -0.0204      0.2451      0.0089
         4        -0.0001     -0.0767      0.0005      0.0059      0.0003
         5        -2.8171      0.0002      0.0478      7.9385      0.4049
         6        -0.0001     -0.1352      0.0003      0.0183      0.0010
         7        -0.0853      0.0003      0.1541      0.0310      0.0017
         8        -0.0001      0.4722     -0.0001      0.2230      0.0125
         9         0.2885     -0.0000     -0.0057      0.0833      0.0049
        10         0.0020      0.1405     -0.0036      0.0198      0.0012
 Ground to excited state transition velocity dipole moments (Au):
       state          X           Y           Z        Dip. S.      Osc.
         1         0.2120     -0.0001      0.0122      0.0451      0.5679
         2         0.0001     -0.0018      0.0000      0.0000      0.0000
         3         0.0223      0.0000     -0.0023      0.0005      0.0061
         4        -0.0000      0.0055     -0.0000      0.0000      0.0003
         5         0.1846      0.0000     -0.0097      0.0342      0.2977
         6         0.0000      0.0055     -0.0000      0.0000      0.0002
         7         0.0073     -0.0000     -0.0193      0.0004      0.0034
         8         0.0000     -0.0202      0.0000      0.0004      0.0033
         9        -0.0121     -0.0001     -0.0361      0.0015      0.0110
        10        -0.0003     -0.0317      0.0007      0.0010      0.0073
 Ground to excited state transition magnetic dipole moments (Au):
       state          X           Y           Z
         1        -0.0725      0.0002     -0.1073
         2         0.0001      0.3694     -0.0019
         3         0.0169     -0.0021     -0.3498
         4         0.0001      0.0477      0.0002
         5        -0.1026      0.0004     -0.8311
         6         0.0001      0.2670     -0.0010
         7         0.0659     -0.0004     -0.5979
         8         0.0000      1.1391      0.0001
         9         0.1127      0.0003      0.2743
        10        -0.0033      0.0069      0.0076
 Ground to excited state transition velocity quadrupole moments (Au):
       state          XX          YY          ZZ          XY          XZ          YZ
         1         0.0006     -0.0001      0.0001     -0.2105     -0.0002      0.1859
         2        -0.2076      0.0209     -0.0035     -0.0002     -0.0692      0.0002
         3         0.0009     -0.0001      0.0000     -0.0531      0.0004      0.0315
         4        -1.2048      0.1882     -0.0901      0.0002     -0.0212     -0.0001
         5        -0.0003      0.0005     -0.0000     -0.3085     -0.0004      0.0935
         6        -2.0198      0.1382     -0.0006     -0.0004     -0.0877      0.0001
         7         0.0033     -0.0002      0.0000     -0.1008      0.0002      0.0518
         8         3.6499     -0.1311     -0.0231      0.0003     -0.3484      0.0001
         9        -0.0003     -0.0006      0.0001      0.2317     -0.0002      0.1559
        10        -0.6102     -0.1707      0.1323      0.0045      0.0910     -0.0011
 <0|del|b> * <b|rxdel|0> + <0|del|b> * <b|delr+rdel|0>
 Rotatory Strengths (R) in cgs (10**-40 erg-esu-cm/Gauss)
       state          XX          YY          ZZ    R(velocity)    E-M Angle
         1       -25.8539    169.0164   -365.8312    -74.2229      127.33
         2        -5.0603      0.0002     -3.4644     -2.8415       90.00
         3         5.8776     11.3037     -2.1145      5.0223       81.45
         4         1.8136      0.0000      0.6983      0.8373       90.00
         5        51.2504     15.7306   -167.2388    -33.4193       94.02
         6         8.3541      0.0001      4.2242      4.1928       90.00
         7        57.3238     44.4212      0.4343     34.0598       14.33
         8      -127.0056     -0.0000    -67.5071    -64.8376       90.00
         9       -73.4851    -19.2810      2.1082    -30.2193      176.22
        10        10.3313      0.0138    -11.9917     -0.5489      128.41
 1/2[<0|r|b>*<b|rxdel|0> + (<0|rxdel|b>*<b|r|0>)*]
 Rotatory Strengths (R) in cgs (10**-40 erg-esu-cm/Gauss)
       state          XX          YY          ZZ     R(length)
         1      -239.1417     -0.0001    -29.8899    -89.6772
         2         0.0002      0.9656     -0.0004      0.3218
         3         5.9011      0.0002     -5.0385      0.2876
         4         0.0000      2.5860     -0.0001      0.8620
         5      -204.3459     -0.0001     28.0716    -58.7581
         6         0.0000     25.5314      0.0002      8.5106
         7         3.9759      0.0001     65.1480     23.0413
         8         0.0000   -380.3730      0.0000   -126.7910
         9       -22.9885      0.0000      1.1144     -7.2913
        10         0.0047     -0.6889      0.0192     -0.2216
  1/2[<0|del|b>*<b|r|0> + (<0|r|b>*<b|del|0>)*] (Au)
       state          X           Y           Z        Dip. S.   Osc.(frdel)
         1        -0.9894     -0.0000     -0.0048      0.9942      0.6628
         2        -0.0000      0.0000     -0.0000     -0.0000     -0.0000
         3        -0.0110      0.0000      0.0000      0.0110      0.0073
         4         0.0000     -0.0004     -0.0000      0.0004      0.0003
         5        -0.5200      0.0000     -0.0005      0.5205      0.3470
         6        -0.0000     -0.0007     -0.0000      0.0007      0.0005
         7        -0.0006     -0.0000     -0.0030      0.0036      0.0024
         8        -0.0000     -0.0096     -0.0000      0.0096      0.0064
         9        -0.0035      0.0000      0.0002      0.0033      0.0022
        10        -0.0000     -0.0045     -0.0000      0.0045      0.0030

 Excitation energies and oscillator strengths:
 
 Excited State   1:      Singlet-A      1.4408 eV  860.52 nm  f=0.7741  <S**2>=0.000
     200 ->201         0.70390
     200 <-201        -0.10284
 This state for optimization and/or second-order correction.
 Total Energy, E(TD-HF/TD-DFT) =  -3492.73445351    
 Copying the excited state density for this state as the 1-particle RhoCI density.
 
 Excited State   2:      Singlet-A      1.4887 eV  832.84 nm  f=0.0000  <S**2>=0.000
     199 ->201         0.70454
 
 Excited State   3:      Singlet-A      1.4895 eV  832.39 nm  f=0.0089  <S**2>=0.000
     198 ->201         0.70307
 
 Excited State   4:      Singlet-A      1.9902 eV  622.97 nm  f=0.0003  <S**2>=0.000
     197 ->201         0.61431
     200 ->203         0.33478
 
 Excited State   5:      Singlet-A      2.0818 eV  595.57 nm  f=0.4049  <S**2>=0.000
     200 ->202         0.68970
 
 Excited State   6:      Singlet-A      2.2607 eV  548.44 nm  f=0.0010  <S**2>=0.000
     197 ->201         0.15816
     198 ->203         0.37280
     199 ->202         0.48222
     200 ->203        -0.31135
 
 Excited State   7:      Singlet-A      2.2650 eV  547.39 nm  f=0.0017  <S**2>=0.000
     198 ->202         0.54897
     199 ->203         0.43783
 
 Excited State   8:      Singlet-A      2.2803 eV  543.72 nm  f=0.0125  <S**2>=0.000
     197 ->201        -0.29261
     198 ->203         0.22822
     199 ->202         0.26640
     200 ->203         0.52929
 
 Excited State   9:      Singlet-A      2.3926 eV  518.20 nm  f=0.0049  <S**2>=0.000
     193 ->201         0.37568
     194 ->201         0.27247
     196 ->201         0.51446
 
 Excited State  10:      Singlet-A      2.4947 eV  497.00 nm  f=0.0012  <S**2>=0.000
     195 ->201         0.68985
 SavETr:  write IOETrn=   770 NScale= 10 NData=  16 NLR=1 NState=   10 LETran=     190.

 **********************************************************************

            Population analysis using the SCF Density.

 **********************************************************************

 Orbital symmetries:
       Occupied  (A) (A) (A) (A) (A) (A) (A) (A) (A) (A) (A) (A)
                 (A) (A) (A) (A) (A) (A) (A) (A) (A) (A) (A) (A)
                 (A) (A) (A) (A) (A) (A) (A) (A) (A) (A) (A) (A)
                 (A) (A) (A) (A) (A) (A) (A) (A) (A) (A) (A) (A)
                 (A) (A) (A) (A) (A) (A) (A) (A) (A) (A) (A) (A)
                 (A) (A) (A) (A) (A) (A) (A) (A) (A) (A) (A) (A)
                 (A) (A) (A) (A) (A) (A) (A) (A) (A) (A) (A) (A)
                 (A) (A) (A) (A) (A) (A) (A) (A) (A) (A) (A) (A)
                 (A) (A) (A) (A) (A) (A) (A) (A) (A) (A) (A) (A)
                 (A) (A) (A) (A) (A) (A) (A) (A) (A) (A) (A) (A)
                 (A) (A) (A) (A) (A) (A) (A) (A) (A) (A) (A) (A)
                 (A) (A) (A) (A) (A) (A) (A) (A) (A) (A) (A) (A)
                 (A) (A) (A) (A) (A) (A) (A) (A) (A) (A) (A) (A)
                 (A) (A) (A) (A) (A) (A) (A) (A) (A) (A) (A) (A)
                 (A) (A) (A) (A) (A) (A) (A) (A) (A) (A) (A) (A)
                 (A) (A) (A) (A) (A) (A) (A) (A) (A) (A) (A) (A)
                 (A) (A) (A) (A) (A) (A) (A) (A)
       Virtual   (A) (A) (A) (A) (A) (A) (A) (A) (A) (A) (A) (A)
                 (A) (A) (A) (A) (A) (A) (A) (A) (A) (A) (A) (A)
                 (A) (A) (A) (A) (A) (A) (A) (A) (A) (A) (A) (A)
                 (A) (A) (A) (A) (A) (A) (A) (A) (A) (A) (A) (A)
                 (A) (A) (A) (A) (A) (A) (A) (A) (A) (A) (A) (A)
                 (A) (A) (A) (A) (A) (A) (A) (A) (A) (A) (A) (A)
                 (A) (A) (A) (A) (A) (A) (A) (A) (A) (A) (A) (A)
                 (A) (A) (A) (A) (A) (A) (A) (A) (A) (A) (A) (A)
                 (A) (A) (A) (A) (A) (A) (A) (A) (A) (A) (A) (A)
                 (A) (A) (A) (A) (A) (A) (A) (A) (A) (A) (A) (A)
                 (A) (A) (A) (A) (A) (A) (A) (A) (A) (A) (A) (A)
                 (A) (A) (A) (A) (A) (A) (A) (A) (A) (A) (A) (A)
                 (A) (A) (A) (A) (A) (A) (A) (A) (A) (A) (A) (A)
                 (A) (A) (A) (A) (A) (A) (A) (A) (A) (A) (A) (A)
                 (A) (A) (A) (A) (A) (A) (A) (A) (A) (A) (A) (A)
                 (A) (A) (A) (A) (A) (A) (A) (A) (A) (A) (A) (A)
                 (A) (A) (A) (A) (A) (A) (A) (A) (A) (A) (A) (A)
                 (A) (A) (A) (A) (A) (A) (A) (A) (A) (A) (A) (A)
                 (A) (A) (A) (A) (A) (A) (A) (A) (A) (A) (A) (A)
                 (A) (A) (A) (A) (A) (A) (A) (A) (A) (A) (A) (A)
                 (A) (A) (A) (A) (A) (A) (A) (A) (A) (A) (A) (A)
                 (A) (A) (A) (A) (A) (A) (A) (A) (A) (A) (A) (A)
                 (A) (A) (A) (A) (A) (A) (A) (A) (A) (A) (A) (A)
                 (A) (A) (A) (A) (A) (A) (A) (A) (A) (A) (A) (A)
                 (A) (A) (A) (A) (A) (A) (A) (A) (A) (A) (A) (A)
                 (A) (A) (A) (A) (A) (A) (A) (A) (A) (A) (A) (A)
                 (A) (A) (A) (A) (A) (A) (A) (A) (A) (A) (A) (A)
                 (A) (A) (A) (A) (A) (A) (A) (A) (A) (A) (A) (A)
                 (A) (A) (A) (A) (A) (A) (A) (A) (A) (A) (A) (A)
                 (A) (A) (A) (A) (A)
 The electronic state is 1-A.
 Alpha  occ. eigenvalues --  -88.97895 -88.95367 -88.95367 -14.45937 -14.45937
 Alpha  occ. eigenvalues --  -14.41378 -14.41375 -14.39540 -14.39533 -14.39305
 Alpha  occ. eigenvalues --  -14.39305 -14.38777 -14.38777 -14.35347 -14.35347
 Alpha  occ. eigenvalues --  -14.35226 -14.35226 -10.31465 -10.31465 -10.28697
 Alpha  occ. eigenvalues --  -10.28676 -10.28600 -10.28575 -10.27996 -10.27963
 Alpha  occ. eigenvalues --  -10.27887 -10.27886 -10.27720 -10.27720 -10.27613
 Alpha  occ. eigenvalues --  -10.27613 -10.27314 -10.27314 -10.27014 -10.27014
 Alpha  occ. eigenvalues --  -10.26708 -10.26707 -10.25562 -10.25562 -10.25423
 Alpha  occ. eigenvalues --  -10.25423 -10.25187 -10.25187 -10.24664 -10.24663
 Alpha  occ. eigenvalues --  -10.23717 -10.23717 -10.23616 -10.23615 -10.23435
 Alpha  occ. eigenvalues --  -10.23435 -10.23396 -10.23396 -10.22852 -10.22852
 Alpha  occ. eigenvalues --  -10.22606 -10.22606  -8.05466  -8.02988  -8.02987
 Alpha  occ. eigenvalues --   -6.01894  -6.01360  -6.00859  -5.99345  -5.99345
 Alpha  occ. eigenvalues --   -5.98913  -5.98913  -5.98432  -5.98432  -1.05294
 Alpha  occ. eigenvalues --   -1.05290  -1.04321  -1.03540  -1.02842  -1.02803
 Alpha  occ. eigenvalues --   -0.96782  -0.95947  -0.95928  -0.93613  -0.93553
 Alpha  occ. eigenvalues --   -0.93420  -0.92841  -0.92601  -0.92599  -0.92282
 Alpha  occ. eigenvalues --   -0.90199  -0.89618  -0.89062  -0.84800  -0.84061
 Alpha  occ. eigenvalues --   -0.82187  -0.81460  -0.81412  -0.81133  -0.80361
 Alpha  occ. eigenvalues --   -0.80135  -0.78077  -0.76733  -0.76542  -0.75957
 Alpha  occ. eigenvalues --   -0.73942  -0.72161  -0.71794  -0.70980  -0.70918
 Alpha  occ. eigenvalues --   -0.69301  -0.68960  -0.67319  -0.67032  -0.66085
 Alpha  occ. eigenvalues --   -0.65120  -0.64283  -0.63018  -0.61364  -0.61090
 Alpha  occ. eigenvalues --   -0.60148  -0.58862  -0.58478  -0.58467  -0.58263
 Alpha  occ. eigenvalues --   -0.57375  -0.57374  -0.56999  -0.56821  -0.56230
 Alpha  occ. eigenvalues --   -0.55432  -0.54838  -0.53609  -0.52532  -0.51528
 Alpha  occ. eigenvalues --   -0.50962  -0.50465  -0.50338  -0.49570  -0.49354
 Alpha  occ. eigenvalues --   -0.49057  -0.48683  -0.48523  -0.48371  -0.48127
 Alpha  occ. eigenvalues --   -0.47815  -0.47548  -0.47139  -0.47021  -0.46899
 Alpha  occ. eigenvalues --   -0.46856  -0.46335  -0.46210  -0.45824  -0.44839
 Alpha  occ. eigenvalues --   -0.44804  -0.44348  -0.43703  -0.43219  -0.42559
 Alpha  occ. eigenvalues --   -0.42532  -0.41789  -0.40516  -0.40190  -0.39647
 Alpha  occ. eigenvalues --   -0.39217  -0.38556  -0.38523  -0.38402  -0.38159
 Alpha  occ. eigenvalues --   -0.37639  -0.36796  -0.36795  -0.36534  -0.35900
 Alpha  occ. eigenvalues --   -0.35846  -0.35833  -0.35663  -0.35663  -0.35223
 Alpha  occ. eigenvalues --   -0.34771  -0.34527  -0.34123  -0.34095  -0.33915
 Alpha  occ. eigenvalues --   -0.33828  -0.33806  -0.33772  -0.32985  -0.31573
 Alpha  occ. eigenvalues --   -0.30941  -0.30893  -0.30748  -0.30576  -0.29861
 Alpha  occ. eigenvalues --   -0.29433  -0.28850  -0.27948  -0.27664  -0.27376
 Alpha  occ. eigenvalues --   -0.26714  -0.24780  -0.22705  -0.22700  -0.22037
 Alpha virt. eigenvalues --   -0.15945  -0.12721  -0.12500  -0.08692  -0.08007
 Alpha virt. eigenvalues --   -0.07932  -0.05642  -0.05629  -0.05057  -0.05022
 Alpha virt. eigenvalues --   -0.04453  -0.02661  -0.02245  -0.02160  -0.01383
 Alpha virt. eigenvalues --   -0.01007   0.00016   0.00702   0.01824   0.01838
 Alpha virt. eigenvalues --    0.02635   0.03114   0.03168   0.03221   0.03385
 Alpha virt. eigenvalues --    0.05125   0.05152   0.07802   0.07802   0.08675
 Alpha virt. eigenvalues --    0.08838   0.08903   0.08924   0.08933   0.09298
 Alpha virt. eigenvalues --    0.09309   0.10507   0.10557   0.10783   0.11200
 Alpha virt. eigenvalues --    0.11491   0.11675   0.11699   0.12007   0.12753
 Alpha virt. eigenvalues --    0.12971   0.13585   0.13637   0.15592   0.15605
 Alpha virt. eigenvalues --    0.15801   0.16527   0.16713   0.18194   0.18197
 Alpha virt. eigenvalues --    0.18549   0.18827   0.19689   0.19807   0.20051
 Alpha virt. eigenvalues --    0.20213   0.20786   0.21902   0.22247   0.22673
 Alpha virt. eigenvalues --    0.22845   0.23357   0.23672   0.23910   0.24363
 Alpha virt. eigenvalues --    0.24529   0.25572   0.26522   0.26536   0.27565
 Alpha virt. eigenvalues --    0.27622   0.28001   0.28068   0.28579   0.29251
 Alpha virt. eigenvalues --    0.29720   0.29783   0.29917   0.30627   0.31360
 Alpha virt. eigenvalues --    0.31999   0.32447   0.32619   0.32654   0.33260
 Alpha virt. eigenvalues --    0.33297   0.33772   0.34841   0.34921   0.36136
 Alpha virt. eigenvalues --    0.36260   0.36884   0.36918   0.38060   0.38165
 Alpha virt. eigenvalues --    0.38477   0.38805   0.39791   0.39858   0.40512
 Alpha virt. eigenvalues --    0.40526   0.41213   0.41771   0.42505   0.42742
 Alpha virt. eigenvalues --    0.43455   0.44120   0.44526   0.45442   0.45720
 Alpha virt. eigenvalues --    0.46402   0.46930   0.46944   0.47420   0.47454
 Alpha virt. eigenvalues --    0.47808   0.47939   0.48626   0.48937   0.49235
 Alpha virt. eigenvalues --    0.50253   0.50673   0.50701   0.50842   0.51729
 Alpha virt. eigenvalues --    0.51748   0.52225   0.52391   0.52482   0.52647
 Alpha virt. eigenvalues --    0.52687   0.53085   0.53086   0.53608   0.53759
 Alpha virt. eigenvalues --    0.53988   0.54470   0.54580   0.54614   0.54864
 Alpha virt. eigenvalues --    0.55123   0.56191   0.56231   0.56937   0.56939
 Alpha virt. eigenvalues --    0.57014   0.57495   0.57889   0.57979   0.58142
 Alpha virt. eigenvalues --    0.58494   0.58779   0.59000   0.59027   0.59172
 Alpha virt. eigenvalues --    0.59413   0.59724   0.59833   0.61058   0.61422
 Alpha virt. eigenvalues --    0.61859   0.62022   0.62782   0.63035   0.63049
 Alpha virt. eigenvalues --    0.63270   0.63716   0.63799   0.64090   0.64193
 Alpha virt. eigenvalues --    0.64364   0.64415   0.64535   0.64682   0.64924
 Alpha virt. eigenvalues --    0.65315   0.65435   0.65657   0.65702   0.66094
 Alpha virt. eigenvalues --    0.66244   0.67601   0.67638   0.67730   0.67733
 Alpha virt. eigenvalues --    0.67902   0.68703   0.69191   0.69913   0.70552
 Alpha virt. eigenvalues --    0.70984   0.71454   0.72386   0.73417   0.73424
 Alpha virt. eigenvalues --    0.73461   0.73763   0.73766   0.74552   0.74943
 Alpha virt. eigenvalues --    0.75153   0.75326   0.76217   0.77509   0.78252
 Alpha virt. eigenvalues --    0.78710   0.78831   0.79412   0.79777   0.80224
 Alpha virt. eigenvalues --    0.80265   0.80460   0.81362   0.82072   0.82295
 Alpha virt. eigenvalues --    0.82573   0.82764   0.83030   0.83033   0.83054
 Alpha virt. eigenvalues --    0.83064   0.83227   0.83676   0.84079   0.84178
 Alpha virt. eigenvalues --    0.84554   0.84575   0.85415   0.85836   0.86026
 Alpha virt. eigenvalues --    0.86377   0.86947   0.88503   0.88630   0.88807
 Alpha virt. eigenvalues --    0.88992   0.89106   0.89285   0.89963   0.89964
 Alpha virt. eigenvalues --    0.90629   0.91033   0.92004   0.92094   0.92676
 Alpha virt. eigenvalues --    0.92688   0.93118   0.93381   0.94099   0.94953
 Alpha virt. eigenvalues --    0.95045   0.96353   0.96454   0.97589   0.97592
 Alpha virt. eigenvalues --    0.98619   0.98771   0.98796   0.99548   0.99574
 Alpha virt. eigenvalues --    0.99865   1.01363   1.01875   1.02006   1.03669
 Alpha virt. eigenvalues --    1.04078   1.05131   1.05305   1.05954   1.06058
 Alpha virt. eigenvalues --    1.06896   1.08287   1.08304   1.08376   1.09912
 Alpha virt. eigenvalues --    1.10672   1.12076   1.12261   1.12376   1.12721
 Alpha virt. eigenvalues --    1.12804   1.13559   1.13796   1.14753   1.15429
 Alpha virt. eigenvalues --    1.17341   1.18156   1.18283   1.18582   1.18708
 Alpha virt. eigenvalues --    1.20207   1.20584   1.21089   1.22197   1.23648
 Alpha virt. eigenvalues --    1.24023   1.24872   1.26118   1.26161   1.26920
 Alpha virt. eigenvalues --    1.29116   1.31622   1.32024   1.32539   1.33271
 Alpha virt. eigenvalues --    1.33352   1.35098   1.35685   1.37226   1.37234
 Alpha virt. eigenvalues --    1.38893   1.39809   1.41161   1.41179   1.42631
 Alpha virt. eigenvalues --    1.42752   1.42957   1.43299   1.43534   1.43805
 Alpha virt. eigenvalues --    1.52616   1.52709   1.55138   1.55457   1.58254
 Alpha virt. eigenvalues --    1.58298   1.60589   1.60632   1.62338   1.63804
 Alpha virt. eigenvalues --    1.64602   1.65051   1.66522   1.66672   1.67911
 Alpha virt. eigenvalues --    1.70264   1.70779   1.71068   1.75304   1.77125
 Alpha virt. eigenvalues --    1.82447   1.82452   1.95348   1.96185   1.96186
 Alpha virt. eigenvalues --    1.98244   1.98328   2.09849
          Condensed to atoms (all electrons):
 Mulliken charges:
               1
     1  C    0.082623
     2  C    0.082632
     3  C    0.183041
     4  C    0.183042
     5  C    0.134435
     6  C    0.134467
     7  S    0.662834
     8  N   -0.565648
     9  N   -0.565629
    10  N   -0.389650
    11  N   -0.389654
    12  C   -0.396587
    13  C    0.296081
    14  C    0.260506
    15  C   -0.095031
    16  C   -0.396582
    17  C    0.296087
    18  C    0.260497
    19  C   -0.095027
    20  C    0.034659
    21  C    0.015860
    22  C    0.015859
    23  C    0.034661
    24  N   -0.384098
    25  N   -0.341314
    26  N   -0.341327
    27  N   -0.384097
    28  H    0.167611
    29  H    0.165684
    30  H    0.165688
    31  H    0.167611
    32  C    0.036665
    33  H    0.171467
    34  C    0.036667
    35  H    0.171467
    36  N   -0.747575
    37  C   -0.046060
    38  C   -0.026828
    39  N   -0.747575
    40  C   -0.046060
    41  C   -0.026828
    42  C   -0.108742
    43  H    0.172272
    44  C   -0.106703
    45  H    0.175055
    46  C    0.131559
    47  C    0.129828
    48  C   -0.106703
    49  H    0.175055
    50  C   -0.108742
    51  H    0.172272
    52  C    0.129828
    53  C    0.131558
    54  C    0.139722
    55  H    0.224397
    56  C    0.108077
    57  H    0.196319
    58  C    0.108077
    59  H    0.196319
    60  C    0.139721
    61  H    0.224398
    62  S    0.608270
    63  S    0.608265
    64  C   -0.062517
    65  C   -0.063059
    66  C   -0.062517
    67  C   -0.063059
    68  N   -0.216097
    69  N   -0.215664
    70  N   -0.216097
    71  N   -0.215664
 Sum of Mulliken charges =  -0.00000
 Mulliken charges with hydrogens summed into heavy atoms:
               1
     1  C    0.082623
     2  C    0.082632
     3  C    0.183041
     4  C    0.183042
     5  C    0.134435
     6  C    0.134467
     7  S    0.662834
     8  N   -0.565648
     9  N   -0.565629
    10  N   -0.389650
    11  N   -0.389654
    12  C   -0.396587
    13  C    0.296081
    14  C    0.260506
    15  C   -0.095031
    16  C   -0.396582
    17  C    0.296087
    18  C    0.260497
    19  C   -0.095027
    20  C    0.202270
    21  C    0.181544
    22  C    0.181547
    23  C    0.202272
    24  N   -0.384098
    25  N   -0.341314
    26  N   -0.341327
    27  N   -0.384097
    32  C    0.208132
    34  C    0.208134
    36  N   -0.747575
    37  C   -0.046060
    38  C   -0.026828
    39  N   -0.747575
    40  C   -0.046060
    41  C   -0.026828
    42  C    0.063530
    44  C    0.068352
    46  C    0.131559
    47  C    0.129828
    48  C    0.068352
    50  C    0.063530
    52  C    0.129828
    53  C    0.131558
    54  C    0.364119
    56  C    0.304396
    58  C    0.304396
    60  C    0.364119
    62  S    0.608270
    63  S    0.608265
    64  C   -0.062517
    65  C   -0.063059
    66  C   -0.062517
    67  C   -0.063059
    68  N   -0.216097
    69  N   -0.215664
    70  N   -0.216097
    71  N   -0.215664
 Electronic spatial extent (au):  <R**2>=          82967.0686
 Charge=             -0.0000 electrons
 Dipole moment (field-independent basis, Debye):
    X=             -0.0001    Y=              6.4706    Z=              0.0005  Tot=              6.4706
 Quadrupole moment (field-independent basis, Debye-Ang):
   XX=           -755.1292   YY=           -333.4987   ZZ=           -332.0810
   XY=             -0.0061   XZ=             60.7669   YZ=             -0.0041
 Traceless Quadrupole moment (field-independent basis, Debye-Ang):
   XX=           -281.5596   YY=            140.0709   ZZ=            141.4886
   XY=             -0.0061   XZ=             60.7669   YZ=             -0.0041
 Octapole moment (field-independent basis, Debye-Ang**2):
  XXX=              0.0060  YYY=            153.6353  ZZZ=              0.0338  XYY=              0.0172
  XXY=           1405.4399  XXZ=              0.1479  XZZ=             -0.0122  YZZ=            129.3461
  YYZ=             -0.0152  XYZ=            -80.4906
 Hexadecapole moment (field-independent basis, Debye-Ang**3):
 XXXX=        -206978.4331 YYYY=          -8011.2296 ZZZZ=          -3627.4557 XXXY=             -0.9526
 XXXZ=           8211.4099 YYYX=             -0.2975 YYYZ=             -0.1036 ZZZX=            921.1311
 ZZZY=              0.0150 XXYY=         -23223.2777 XXZZ=         -19912.1268 YYZZ=          -1916.3144
 XXYZ=             -0.2539 YYXZ=           1274.3802 ZZXY=              0.1489
 N-N= 7.035416691971D+03 E-N=-2.224383146657D+04  KE= 3.477646316065D+03
 Unable to Open any file for archive entry.
 1\1\GINC-ORFOZ238\SP\RB3LYP TD-FC\6-31G\C40H14N14S3\PINARS\30-Sep-2025
 \0\\# td=(nstates=10) b3lyp/6-31g\\Title Card Required\\0,1\C,0,-0.715
 491,-0.639116,-0.11688\C,0,0.715471,-0.639135,0.116922\C,0,1.461691,0.
 54874,0.271027\C,0,-1.461681,0.548781,-0.270941\C,0,-0.726719,1.774142
 ,-0.114158\C,0,0.726777,1.774123,0.114147\S,0,0.000098,4.172071,-0.000
 384\N,0,1.3019,2.982408,0.153581\N,0,-1.301819,2.982437,-0.15358\N,0,-
 1.38713,-1.846645,-0.207483\N,0,1.38707,-1.846682,0.207568\C,0,-2.8728
 01,0.563004,-0.573543\C,0,-3.592028,1.423151,-1.405476\C,0,-5.030871,1
 .254564,-1.370744\C,0,-5.448286,0.238738,-0.517433\C,0,2.872798,0.5628
 91,0.573705\C,0,3.592027,1.422875,1.405812\C,0,5.030868,1.254282,1.371
 053\C,0,5.448273,0.23859,0.517579\C,0,-5.271895,2.932546,-2.925522\C,0
 ,-3.842819,3.051478,-3.013824\C,0,3.842842,3.050916,3.01445\C,0,5.2719
 16,2.932018,2.926091\N,0,-5.861033,2.047363,-2.140074\N,0,-3.01863,2.3
 22692,-2.282317\N,0,3.018643,2.322255,2.282829\N,0,5.861042,2.046962,2
 .14049\H,0,-5.910083,3.56717,-3.530557\H,0,-3.401196,3.750457,-3.71591
 1\H,0,3.401228,3.749772,3.716665\H,0,5.910113,3.566545,3.531218\C,0,-0
 .708387,-2.971138,-0.099858\H,0,-1.25956,-3.902584,-0.171594\C,0,0.708
 294,-2.971158,0.099965\H,0,1.259438,-3.902618,0.171726\N,0,-6.741347,-
 0.20467,-0.244315\C,0,-8.964882,-0.465507,-0.357554\C,0,-8.443146,-1.3
 21008,0.703524\N,0,6.741333,-0.204756,0.244355\C,0,8.964879,-0.465553,
 0.357475\C,0,8.44312,-1.320943,-0.703682\C,0,-9.330575,-2.130562,1.457
 922\H,0,-8.961113,-2.771494,2.250309\C,0,-10.356261,-0.448093,-0.63105
 4\H,0,-10.758744,0.181946,-1.416018\C,0,-10.684643,-2.099755,1.175552\
 C,0,-11.206551,-1.245654,0.114106\C,0,10.356268,-0.448138,0.630922\H,0
 ,10.758768,0.18182,1.415941\C,0,9.330538,-2.13039,-1.458208\H,0,8.9610
 6,-2.771239,-2.250655\C,0,11.206547,-1.245594,-0.114364\C,0,10.684617,
 -2.099584,-1.175888\C,0,-7.891962,0.209289,-0.924042\H,0,-7.820216,0.9
 41392,-1.708446\C,0,-7.0696,-1.134365,0.7485\H,0,-6.320137,-1.55675,1.
 395246\C,0,7.069568,-1.134328,-0.748581\H,0,6.320089,-1.556658,-1.3953
 45\C,0,7.891966,0.209154,0.924082\H,0,7.820235,0.941166,1.708572\S,0,-
 4.033087,-0.590383,0.213189\S,0,4.033061,-0.590505,-0.213045\C,0,-11.5
 79976,-2.915712,1.933814\C,0,-12.608854,-1.231226,-0.159727\C,0,11.579
 938,-2.915433,-1.93428\C,0,12.608861,-1.231165,0.159414\N,0,-13.758619
 ,-1.207014,-0.398503\N,0,-12.300456,-3.593324,2.567212\N,0,13.758634,-
 1.206954,0.398148\N,0,12.300409,-3.592955,-2.567785\\Version=ES64L-G16
 RevC.02\State=1-A\HF=-3492.787402\RMSD=7.625e-09\PG=C01 [X(C40H14N14S3
 )]\\@
 The archive entry for this job was punched.


 CHINESE FORTUNE COOKIE OF JAN 1 1967 SAY....
 ALL THINGS ARE DIFFICULT BEFORE THEY ARE EASY.
 WE LEARN SO LITTLE AND FORGET SO MUCH.
 YOU WILL OVERCOME OBSTACLES TO ACHIEVE SUCCESS.
 AH SO.
 Job cpu time:       0 days  1 hours 41 minutes 24.8 seconds.
 Elapsed time:       0 days  0 hours  1 minutes 10.1 seconds.
 File lengths (MBytes):  RWF=   2944 Int=      0 D2E=      0 Chk=    137 Scr=      1
 Normal termination of Gaussian 16 at Tue Sep 30 11:23:36 2025.
